&control
    calculation = 'scf'
    wf_collect = .true.
    prefix = 'BN'
/

&system
    ibrav = 0
    nat = 71
    ntyp = 2
    nspin = 2
    ecutwfc = 55
    starting_magnetization(1:2) = 0.5, 0.5
    nbnd = 151
    tot_magnetization = 1
/

&electrons
    mixing_beta = 0.7
    conv_thr = 1e-07
/

&ions
/

ATOMIC_SPECIES
    B  10.811  B_ONCV_PBE-1.0.upf
    N  14.0067  N_ONCV_PBE-1.0.upf

CELL_PARAMETERS angstrom
        15.043730000       0.000000000       0.000000000
        -7.521865000      13.028252348       0.000000000
         0.000000000       0.000000000      20.000000000

K_POINTS automatic
    1  1  1    0  0  0

ATOMIC_POSITIONS crystal
B    0.1126490488 0.0558666842 0.0000000000
B    0.1132006048 0.2215226332 0.0000000000
B    0.1102207656 0.3875187165 0.0000000000
B    0.1070835773 0.5541725042 0.0000000000
B    0.1068045269 0.7207832574 0.0000000000
B    0.1086356080 0.8875027692 0.0000000000
B    0.2791557183 0.0582386712 0.0000000000
B    0.2860294429 0.2297609783 0.0000000000
B    0.2778268197 0.3908603642 0.0000000000
B    0.2730699127 0.5558279394 0.0000000000
B    0.2738434705 0.7223283401 0.0000000000
B    0.2753828646 0.8893175964 0.0000000000
B    0.4440758592 0.0565882309 0.0000000000
B    0.4475296571 0.2288511518 0.0000000000
B    0.4622801182 0.4143458378 0.0000000000
B    0.4377859648 0.5583678107 0.0000000000
B    0.4402741969 0.7230300077 0.0000000000
B    0.4420339208 0.8890856249 0.0000000000
B    0.6107120740 0.0519158117 0.0000000000
B    0.6153785940 0.2169398599 0.0000000000
N    0.6167511078 0.3793838079 0.0000000000
B    0.5819600130 0.5340761040 0.0000000000
B    0.6053099253 0.7183784959 0.0000000000
B    0.6086583642 0.8859265127 0.0000000000
B    0.7774392973 0.0505462899 0.0000000000
B    0.7799371710 0.2162534896 0.0000000000
B    0.7791304348 0.3807287912 0.0000000000
B    0.7672943070 0.5486931271 0.0000000000
B    0.7665124761 0.7103230943 0.0000000000
B    0.7746718783 0.8830038166 0.0000000000
B    0.9442113353 0.0519780050 0.0000000000
B    0.9456333550 0.2187540511 0.0000000000
B    0.9442510774 0.3854936434 0.0000000000
B    0.9395038828 0.5520749607 0.0000000000
B    0.9378653818 0.7169962399 0.0000000000
B    0.9404323932 0.8836585970 0.0000000000
N    0.0559505462 0.1096974899 0.0000000000
N    0.0561460923 0.2759667057 0.0000000000
N    0.0538850053 0.4426859504 0.0000000000
N    0.0503350783 0.6089600383 0.0000000000
N    0.0503935099 0.7750155687 0.0000000000
N    0.0535834945 0.9427713069 0.0000000000
N    0.2260438294 0.1152857298 0.0000000000
N    0.2243944200 0.2791355227 0.0000000000
N    0.2199196028 0.4447345045 0.0000000000
N    0.2174007571 0.6112165966 0.0000000000
N    0.2183045666 0.7778305306 0.0000000000
N    0.2210802243 0.9456567428 0.0000000000
N    0.3922221048 0.1161994161 0.0000000000
N    0.4012042062 0.2910326228 0.0000000000
N    0.3866013854 0.4487464171 0.0000000000
N    0.3828250692 0.6132239664 0.0000000000
N    0.3849548597 0.7787912424 0.0000000000
N    0.3872132692 0.9457670285 0.0000000000
N    0.5558328987 0.1085122437 0.0000000000
N    0.5650580302 0.2786027946 0.0000000000
N    0.5474227455 0.6096371137 0.0000000000
N    0.5513891442 0.7761993649 0.0000000000
N    0.5535118897 0.9422930898 0.0000000000
N    0.7220428977 0.1064164820 0.0000000000
N    0.7243991162 0.2716710751 0.0000000000
N    0.7175187700 0.4311473097 0.0000000000
N    0.7053128840 0.5952132150 0.0000000000
N    0.7170285277 0.7718520420 0.0000000000
N    0.7202471931 0.9400312481 0.0000000000
N    0.8886711531 0.1075205439 0.0000000000
N    0.8897990486 0.2741799245 0.0000000000
N    0.8875630543 0.4403064745 0.0000000000
N    0.8798741533 0.6039164587 0.0000000000
N    0.8809622913 0.7702475021 0.0000000000
N    0.8864729969 0.9402355826 0.0000000000
