&control
    calculation = 'scf'
    wf_collect = .true.
    prefix = 'BN'
/

&system
    ibrav = 0
    nat = 71
    ntyp = 2
    nspin = 2
    ecutwfc = 55
    starting_magnetization(1:2) = 0.5, 0.5
    nbnd = 151
    tot_magnetization = 1
/

&electrons
    mixing_beta = 0.7
    conv_thr = 1e-07
/

&ions
/

ATOMIC_SPECIES
    B  10.811  B_ONCV_PBE-1.0.upf
    N  14.0067  N_ONCV_PBE-1.0.upf

CELL_PARAMETERS angstrom
        15.043730000       0.000000000       0.000000000
        -7.521865000      13.028252348       0.000000000
         0.000000000       0.000000000      20.000000000

K_POINTS automatic
    1  1  1    0  0  0

ATOMIC_POSITIONS crystal
B    0.1126555950 0.0558786570 0.0000000000
B    0.1132514130 0.2215432000 0.0000000000
B    0.1102547360 0.3875296980 0.0000000000
B    0.1070729600 0.5541832370 0.0000000000
B    0.1067872890 0.7207982890 0.0000000000
B    0.1086243340 0.8875121190 0.0000000000
B    0.2791337540 0.0582480130 0.0000000000
B    0.2860663020 0.2298037540 0.0000000000
B    0.2778961490 0.3909285480 0.0000000000
B    0.2730507710 0.5558572970 0.0000000000
B    0.2738248500 0.7223472430 0.0000000000
B    0.2753654040 0.8893297340 0.0000000000
B    0.4440623030 0.0565926040 0.0000000000
B    0.4473931700 0.2288576760 0.0000000000
B    0.4625261160 0.4146217720 0.0000000000
B    0.4377426850 0.5584107480 0.0000000000
B    0.4402408620 0.7230449630 0.0000000000
B    0.4420254470 0.8890958370 0.0000000000
B    0.6107227910 0.0518725720 0.0000000000
B    0.6154475290 0.2168611260 0.0000000000
N    0.6169130390 0.3792180550 0.0000000000
B    0.5816913370 0.5338392750 0.0000000000
B    0.6052429760 0.7183112350 0.0000000000
B    0.6086451820 0.8858886070 0.0000000000
B    0.7774541290 0.0505023590 0.0000000000
B    0.7799960210 0.2161958620 0.0000000000
B    0.7792045090 0.3806576830 0.0000000000
B    0.7672846300 0.5488306080 0.0000000000
B    0.7664750200 0.7102947690 0.0000000000
B    0.7746541690 0.8829562860 0.0000000000
B    0.9442257850 0.0519659270 0.0000000000
B    0.9456750680 0.2187376720 0.0000000000
B    0.9442934390 0.3854844860 0.0000000000
B    0.9394939290 0.5520866490 0.0000000000
B    0.9378517240 0.7170176100 0.0000000000
B    0.9404266520 0.8836583620 0.0000000000
N    0.0559601450 0.1097021520 0.0000000000
N    0.0561636160 0.2759696690 0.0000000000
N    0.0538907260 0.4426912470 0.0000000000
N    0.0502957400 0.6089582440 0.0000000000
N    0.0503749940 0.7750189770 0.0000000000
N    0.0535821360 0.9427765150 0.0000000000
N    0.2260536010 0.1152981670 0.0000000000
N    0.2244129790 0.2791550270 0.0000000000
N    0.2199211900 0.4447657810 0.0000000000
N    0.2173622450 0.6112449230 0.0000000000
N    0.2182805080 0.7778508810 0.0000000000
N    0.2210744580 0.9456701710 0.0000000000
N    0.3922421170 0.1162334480 0.0000000000
N    0.4012153490 0.2910252010 0.0000000000
N    0.3866054900 0.4488204430 0.0000000000
N    0.3827688760 0.6132761880 0.0000000000
N    0.3849264590 0.7788303000 0.0000000000
N    0.3872126910 0.9458012100 0.0000000000
N    0.5558523170 0.1085043590 0.0000000000
N    0.5651800480 0.2786702140 0.0000000000
N    0.5473480030 0.6096347810 0.0000000000
N    0.5513558620 0.7761956240 0.0000000000
N    0.5535085070 0.9422861800 0.0000000000
N    0.7220548520 0.1063934030 0.0000000000
N    0.7244320770 0.2716366080 0.0000000000
N    0.7174470170 0.4310258860 0.0000000000
N    0.7053247060 0.5952105940 0.0000000000
N    0.7170108880 0.7718371470 0.0000000000
N    0.7202420640 0.9400111270 0.0000000000
N    0.8886781110 0.1075124500 0.0000000000
N    0.8898236210 0.2741694410 0.0000000000
N    0.8875668190 0.4402861660 0.0000000000
N    0.8798350380 0.6038957630 0.0000000000
N    0.8809529800 0.7702438740 0.0000000000
N    0.8864716620 0.9402289680 0.0000000000
