&control
    calculation = 'scf'
    wf_collect = .true.
    prefix = 'BN'
/

&system
    ibrav = 0
    nat = 71
    ntyp = 2
    nspin = 2
    ecutwfc = 55
    starting_magnetization(1:2) = 0.5, 0.5
    nbnd = 151
    tot_magnetization = 1
/

&electrons
    mixing_beta = 0.7
    conv_thr = 1e-08
/

&ions
/

ATOMIC_SPECIES
    B       10.8110  B_ONCV_PBE-1.0.upf
    N       14.0067  N_ONCV_PBE-1.0.upf

CELL_PARAMETERS angstrom
        15.043730000       0.000000000       0.000000000
        -7.521865000      13.028252348       0.000000000
         0.000000000       0.000000000      20.000000000

ATOMIC_POSITIONS crystal
    B           0.112544310       0.055675119       0.000000000
    B           0.112387674       0.221193564       0.000000000
    B           0.109677239       0.387343012       0.000000000
    B           0.107253454       0.554000779       0.000000000
    B           0.107080334       0.720542752       0.000000000
    B           0.108815991       0.887353172       0.000000000
    B           0.279507146       0.058089202       0.000000000
    B           0.285439696       0.229076567       0.000000000
    B           0.276717550       0.389769423       0.000000000
    B           0.273376180       0.555358219       0.000000000
    B           0.274141398       0.722025895       0.000000000
    B           0.275662234       0.889123396       0.000000000
    B           0.444292758       0.056518262       0.000000000
    B           0.449713451       0.228746765       0.000000000
    B           0.458344154       0.409930891       0.000000000
    B           0.438478442       0.557680814       0.000000000
    B           0.440807556       0.722790723       0.000000000
    B           0.442169502       0.888922230       0.000000000
    B           0.610540601       0.052607647       0.000000000
    B           0.614275634       0.218199603       0.000000000
    N           0.614160209       0.382035854       0.000000000
    B           0.586258829       0.537865369       0.000000000
    B           0.606381113       0.719454669       0.000000000
    B           0.608869279       0.886533003       0.000000000
    B           0.777201990       0.051249184       0.000000000
    B           0.778995570       0.217175531       0.000000000
    B           0.777945248       0.381866522       0.000000000
    B           0.767449139       0.546493433       0.000000000
    B           0.767111775       0.710776300       0.000000000
    B           0.774955228       0.883764307       0.000000000
    B           0.943980139       0.052171252       0.000000000
    B           0.944965947       0.219016117       0.000000000
    B           0.943573293       0.385640161       0.000000000
    B           0.939663144       0.551887948       0.000000000
    B           0.938083906       0.716654319       0.000000000
    B           0.940524253       0.883662358       0.000000000
    N           0.055796965       0.109622897       0.000000000
    N           0.055865713       0.275919294       0.000000000
    N           0.053793474       0.442601205       0.000000000
    N           0.050964491       0.608988746       0.000000000
    N           0.050689765       0.774961036       0.000000000
    N           0.053605230       0.942687978       0.000000000
    N           0.225887484       0.115086735       0.000000000
    N           0.224097475       0.278823453       0.000000000
    N           0.219894208       0.444234081       0.000000000
    N           0.218016950       0.610763374       0.000000000
    N           0.218689503       0.777504925       0.000000000
    N           0.221172484       0.945441892       0.000000000
    N           0.391901909       0.115654906       0.000000000
    N           0.401025921       0.291151371       0.000000000
    N           0.386535712       0.447562002       0.000000000
    N           0.383724161       0.612388421       0.000000000
    N           0.385409271       0.778166321       0.000000000
    N           0.387222520       0.945220124       0.000000000
    N           0.555522205       0.108638400       0.000000000
    N           0.563105745       0.277524084       0.000000000
    N           0.548618626       0.609674437       0.000000000
    N           0.551921660       0.776259220       0.000000000
    N           0.553566013       0.942403646       0.000000000
    N           0.721851629       0.106785747       0.000000000
    N           0.723871744       0.272222548       0.000000000
    N           0.718666818       0.433090088       0.000000000
    N           0.705123733       0.595255150       0.000000000
    N           0.717310762       0.772090363       0.000000000
    N           0.720329259       0.940353186       0.000000000
    N           0.888559827       0.107650046       0.000000000
    N           0.889405889       0.274347660       0.000000000
    N           0.887502819       0.440631410       0.000000000
    N           0.880499999       0.604247590       0.000000000
    N           0.881111271       0.770305552       0.000000000
    N           0.886494355       0.940341417       0.000000000

K_POINTS automatic
    1  1  1    0  0  0

