&control
    calculation = 'scf'
    wf_collect = .true.
    prefix = 'BN'
    outdir = '.'
/

&system
    ibrav = 0
    nat = 71
    ntyp = 2
    nspin = 2
    ecutwfc = 55
    starting_magnetization(1:2) = 0.5, 0.5
    nbnd = 151
    tot_magnetization = 1
/

&electrons
    mixing_beta = 0.7
    conv_thr = 1e-07
/

&ions
/

ATOMIC_SPECIES
    B  10.811  B_ONCV_PBE-1.0.upf
    N  14.0067  N_ONCV_PBE-1.0.upf

CELL_PARAMETERS angstrom
        15.043730000       0.000000000       0.000000000
        -7.521865000      13.028252348       0.000000000
         0.000000000       0.000000000      20.000000000

K_POINTS automatic
    1  1  1    0  0  0

ATOMIC_POSITIONS crystal
B    0.1125377643 0.0556631466 0.0000000000
B    0.1123368654 0.2211729976 0.0000000000
B    0.1096432688 0.3873320310 0.0000000000
B    0.1072640714 0.5539900457 0.0000000000
B    0.1070975721 0.7205277202 0.0000000000
B    0.1088272651 0.8873438217 0.0000000000
B    0.2795291105 0.0580798597 0.0000000000
B    0.2854028373 0.2290337914 0.0000000000
B    0.2766482207 0.3897012396 0.0000000000
B    0.2733953216 0.5553288611 0.0000000000
B    0.2741600181 0.7220069917 0.0000000000
B    0.2756796948 0.8891112581 0.0000000000
B    0.4443063146 0.0565138891 0.0000000000
B    0.4498499378 0.2287402404 0.0000000000
B    0.4580981565 0.4096549564 0.0000000000
B    0.4385217214 0.5576378766 0.0000000000
B    0.4408408911 0.7227757676 0.0000000000
B    0.4421779754 0.8889120183 0.0000000000
B    0.6105298841 0.0526508866 0.0000000000
B    0.6142066990 0.2182783371 0.0000000000
N    0.6139982774 0.3822016072 0.0000000000
B    0.5865275050 0.5381021979 0.0000000000
B    0.6064480625 0.7195219303 0.0000000000
B    0.6088824616 0.8865709087 0.0000000000
B    0.7771871584 0.0512931152 0.0000000000
B    0.7789367201 0.2172331588 0.0000000000
B    0.7778711734 0.3819376306 0.0000000000
B    0.7674588160 0.5463559518 0.0000000000
B    0.7671492307 0.7108046253 0.0000000000
B    0.7749729373 0.8838118377 0.0000000000
B    0.9439656895 0.0521833301 0.0000000000
B    0.9449242340 0.2190324958 0.0000000000
B    0.9435309311 0.3856493183 0.0000000000
B    0.9396730974 0.5518762596 0.0000000000
B    0.9380975635 0.7166329491 0.0000000000
B    0.9405299945 0.8836625929 0.0000000000
N    0.0557873666 0.1096182351 0.0000000000
N    0.0558481894 0.2759163305 0.0000000000
N    0.0537877534 0.4425959082 0.0000000000
N    0.0510038294 0.6089905405 0.0000000000
N    0.0507082811 0.7749576276 0.0000000000
N    0.0536065890 0.9426827701 0.0000000000
N    0.2258777122 0.1150742974 0.0000000000
N    0.2240789161 0.2788039487 0.0000000000
N    0.2198926213 0.4442028040 0.0000000000
N    0.2180554619 0.6107350478 0.0000000000
N    0.2187135619 0.7774845747 0.0000000000
N    0.2211782505 0.9454284643 0.0000000000
N    0.3918818965 0.1156208738 0.0000000000
N    0.4010147786 0.2911587925 0.0000000000
N    0.3865316072 0.4474879759 0.0000000000
N    0.3837803545 0.6123361992 0.0000000000
N    0.3854376716 0.7781272632 0.0000000000
N    0.3872230986 0.9451859430 0.0000000000
N    0.5555027867 0.1086462845 0.0000000000
N    0.5629837267 0.2774566648 0.0000000000
N    0.5486933680 0.6096767696 0.0000000000
N    0.5519549425 0.7762629611 0.0000000000
N    0.5535693956 0.9424105555 0.0000000000
N    0.7218396746 0.1068088259 0.0000000000
N    0.7238387835 0.2722570149 0.0000000000
N    0.7187385710 0.4332115117 0.0000000000
N    0.7051119109 0.5952577711 0.0000000000
N    0.7173284017 0.7721052579 0.0000000000
N    0.7203343878 0.9403733068 0.0000000000
N    0.8885528688 0.1076581402 0.0000000000
N    0.8893813169 0.2743581431 0.0000000000
N    0.8874990544 0.4406517190 0.0000000000
N    0.8805391143 0.6042682856 0.0000000000
N    0.8811205825 0.7703091798 0.0000000000
N    0.8864956902 0.9403480317 0.0000000000
