&control
    calculation = 'scf'
    prefix = 'di'
    verbosity = 'high'
    wf_collect = .true.
/

&system
    ibrav = 1
    a = 7.136588
    nat = 63
    ntyp = 2
    ecutwfc = 70
    tot_charge = -1
    nspin = 2
    occupations = 'smearing'
    smearing = 'mv'
    degauss = 0.001
    starting_magnetization(1:2) = 0.2, 0.2
    tot_magnetization = 0
/

&electrons
    mixing_beta = 0.5
/

&ions
/

ATOMIC_SPECIES
    C  12.0111  C_ONCV_PBE-1.0.upf
    N  14.0067  N_ONCV_PBE-1.0.upf

ATOMIC_POSITIONS crystal
    C         0.375755336       0.375755336       0.873639503
    C         0.500145255       0.000297038       0.000297038
    C         0.500022342      -0.000230524       0.500022342
    C         0.000297038       0.500145255       0.000297038
    C        -0.000230524       0.500022342       0.500022342
    C        -0.000116255      -0.000116255      -0.000116255
    C         0.000297038       0.000297038       0.500145255
    C         0.250324410       0.250324410      -0.001084777
    C         0.250966860       0.250966860       0.495465091
    C         0.250294772       0.749074605       0.000933531
    C         0.251964880       0.748139648       0.501843702
    C         0.749074605       0.250294772       0.000933531
    C         0.748139648       0.251964880       0.501843702
    C         0.749588649       0.749588649      -0.000488611
    C         0.500022342       0.500022342      -0.000230524
    C         0.748881873       0.748881873       0.498577081
    C         0.501843702       0.251964880       0.748139648
    C         0.501843702       0.748139648       0.251964880
    C         0.498577081       0.748881873       0.748881873
    C        -0.001084777       0.250324410       0.250324410
    C         0.000933531       0.250294772       0.749074605
    C         0.000933531       0.749074605       0.250294772
    C        -0.000488611       0.749588649       0.749588649
    C         0.250966860       0.495465091       0.250966860
    C         0.251964880       0.501843702       0.748139648
    C         0.250324410      -0.001084777       0.250324410
    C         0.250294772       0.000933531       0.749074605
    C         0.748139648       0.501843702       0.251964880
    C         0.748881873       0.498577081       0.748881873
    C         0.495465091       0.250966860       0.250966860
    C         0.749074605       0.000933531       0.250294772
    C         0.624483485       0.874096503       0.624483485
    C         0.635379808       0.365238517       0.635379808
    C         0.375803612       0.876210581       0.876210581
    C         0.375755336       0.873639503       0.375755336
    C         0.876210581       0.375803612       0.876210581
    C         0.873639503       0.375755336       0.375755336
    C         0.874612453       0.874612453       0.874612453
    C         0.876210581       0.876210581       0.375803612
    C         0.125377696       0.125377696       0.874324380
    C         0.124163169       0.124163169       0.374869179
    C         0.124029440       0.624452771       0.875978049
    C         0.126871141       0.623164046       0.376342653
    C         0.624452771       0.124029440       0.875978049
    C         0.623164046       0.126871141       0.376342653
    C         0.624452771       0.875978049       0.124029440
    C         0.624483485       0.624483485       0.874096503
    C         0.374869179       0.124163169       0.124163169
    C         0.376342653       0.126871141       0.623164046
    C         0.376342653       0.623164046       0.126871141
    C         0.365238517       0.635379808       0.635379808
    C         0.874324380       0.125377696       0.125377696
    C         0.875978049       0.124029440       0.624452771
    C         0.875978049       0.624452771       0.124029440
    C         0.874096503       0.624483485       0.624483485
    C         0.124163169       0.374869179       0.124163169
    C         0.126871141       0.376342653       0.623164046
    C         0.125377696       0.874324380       0.125377696
    C         0.124029440       0.875978049       0.624452771
    C         0.623164046       0.376342653       0.126871141
    C         0.635379808       0.635379808       0.365238517
    C         0.749588649      -0.000488611       0.749588649
    N         0.366067629       0.366067629       0.366067629

K_POINTS automatic
    3  3  3    0  0  0

