&control
    calculation = 'scf'
    wf_collect = .true.
    prefix = 'BN'
/

&system
    ibrav = 0
    nat = 71
    ntyp = 2
    nspin = 2
    ecutwfc = 55
    starting_magnetization(1:2) = 0.5, 0.5
    occupations = 'from_input'
    nbnd = 151
/

&electrons
    mixing_beta = 0.7
    conv_thr = 1e-06
    scf_must_converge = .false.
    electron_maxstep = 60
/

&ions
/

ATOMIC_SPECIES
    B       10.8110  B_ONCV_PBE-1.0.upf
    N       14.0067  N_ONCV_PBE-1.0.upf

CELL_PARAMETERS angstrom
        15.043730000       0.000000000       0.000000000
        -7.521865000      13.028252348       0.000000000
         0.000000000       0.000000000      20.000000000

ATOMIC_POSITIONS crystal
    B           0.112537764       0.055663147       0.000000000
    B           0.112336865       0.221172998       0.000000000
    B           0.109643269       0.387332031       0.000000000
    B           0.107264071       0.553990046       0.000000000
    B           0.107097572       0.720527720       0.000000000
    B           0.108827265       0.887343822       0.000000000
    B           0.279529111       0.058079860       0.000000000
    B           0.285402837       0.229033791       0.000000000
    B           0.276648221       0.389701240       0.000000000
    B           0.273395322       0.555328861       0.000000000
    B           0.274160018       0.722006992       0.000000000
    B           0.275679695       0.889111258       0.000000000
    B           0.444306315       0.056513889       0.000000000
    B           0.449849938       0.228740240       0.000000000
    B           0.458098157       0.409654956       0.000000000
    B           0.438521721       0.557637877       0.000000000
    B           0.440840891       0.722775768       0.000000000
    B           0.442177975       0.888912018       0.000000000
    B           0.610529884       0.052650887       0.000000000
    B           0.614206699       0.218278337       0.000000000
    N           0.613998277       0.382201607       0.000000000
    B           0.586527505       0.538102198       0.000000000
    B           0.606448062       0.719521930       0.000000000
    B           0.608882462       0.886570909       0.000000000
    B           0.777187158       0.051293115       0.000000000
    B           0.778936720       0.217233159       0.000000000
    B           0.777871173       0.381937631       0.000000000
    B           0.767458816       0.546355952       0.000000000
    B           0.767149231       0.710804625       0.000000000
    B           0.774972937       0.883811838       0.000000000
    B           0.943965690       0.052183330       0.000000000
    B           0.944924234       0.219032496       0.000000000
    B           0.943530931       0.385649318       0.000000000
    B           0.939673097       0.551876260       0.000000000
    B           0.938097563       0.716632949       0.000000000
    B           0.940529995       0.883662593       0.000000000
    N           0.055787367       0.109618235       0.000000000
    N           0.055848189       0.275916331       0.000000000
    N           0.053787753       0.442595908       0.000000000
    N           0.051003829       0.608990541       0.000000000
    N           0.050708281       0.774957628       0.000000000
    N           0.053606589       0.942682770       0.000000000
    N           0.225877712       0.115074297       0.000000000
    N           0.224078916       0.278803949       0.000000000
    N           0.219892621       0.444202804       0.000000000
    N           0.218055462       0.610735048       0.000000000
    N           0.218713562       0.777484575       0.000000000
    N           0.221178251       0.945428464       0.000000000
    N           0.391881896       0.115620874       0.000000000
    N           0.401014779       0.291158792       0.000000000
    N           0.386531607       0.447487976       0.000000000
    N           0.383780355       0.612336199       0.000000000
    N           0.385437672       0.778127263       0.000000000
    N           0.387223099       0.945185943       0.000000000
    N           0.555502787       0.108646284       0.000000000
    N           0.562983727       0.277456665       0.000000000
    N           0.548693368       0.609676770       0.000000000
    N           0.551954942       0.776262961       0.000000000
    N           0.553569396       0.942410556       0.000000000
    N           0.721839675       0.106808826       0.000000000
    N           0.723838784       0.272257015       0.000000000
    N           0.718738571       0.433211512       0.000000000
    N           0.705111911       0.595257771       0.000000000
    N           0.717328402       0.772105258       0.000000000
    N           0.720334388       0.940373307       0.000000000
    N           0.888552869       0.107658140       0.000000000
    N           0.889381317       0.274358143       0.000000000
    N           0.887499054       0.440651719       0.000000000
    N           0.880539114       0.604268286       0.000000000
    N           0.881120583       0.770309180       0.000000000
    N           0.886495690       0.940348032       0.000000000

K_POINTS automatic
    1  1  1    0  0  0

OCCUPATIONS
    1.0000  1.0000  1.0000  1.0000  1.0000  1.0000  1.0000  1.0000
    1.0000  1.0000  1.0000  1.0000  1.0000  1.0000  1.0000  1.0000
    1.0000  1.0000  1.0000  1.0000  1.0000  1.0000  1.0000  1.0000
    1.0000  1.0000  1.0000  1.0000  1.0000  1.0000  1.0000  1.0000
    1.0000  1.0000  1.0000  1.0000  1.0000  1.0000  1.0000  1.0000
    1.0000  1.0000  1.0000  1.0000  1.0000  1.0000  1.0000  1.0000
    1.0000  1.0000  1.0000  1.0000  1.0000  1.0000  1.0000  1.0000
    1.0000  1.0000  1.0000  1.0000  1.0000  1.0000  1.0000  1.0000
    1.0000  1.0000  1.0000  1.0000  1.0000  1.0000  1.0000  1.0000
    1.0000  1.0000  1.0000  1.0000  1.0000  1.0000  1.0000  1.0000
    1.0000  1.0000  1.0000  1.0000  1.0000  1.0000  1.0000  1.0000
    1.0000  1.0000  1.0000  1.0000  1.0000  1.0000  1.0000  1.0000
    1.0000  1.0000  1.0000  1.0000  1.0000  1.0000  1.0000  1.0000
    1.0000  1.0000  1.0000  1.0000  1.0000  1.0000  1.0000  1.0000
    1.0000  1.0000  1.0000  1.0000  1.0000  1.0000  1.0000  1.0000
    1.0000  1.0000  1.0000  1.0000  1.0000  1.0000  1.0000  1.0000
    1.0000  1.0000  1.0000  1.0000  1.0000  1.0000  1.0000  1.0000
    1.0000  1.0000  1.0000  1.0000  1.0000  1.0000  0.0000  1.0000
    0.0000  0.0000  0.0000  0.0000  0.0000  0.0000  0.0000
    1.0000  1.0000  1.0000  1.0000  1.0000  1.0000  1.0000  1.0000
    1.0000  1.0000  1.0000  1.0000  1.0000  1.0000  1.0000  1.0000
    1.0000  1.0000  1.0000  1.0000  1.0000  1.0000  1.0000  1.0000
    1.0000  1.0000  1.0000  1.0000  1.0000  1.0000  1.0000  1.0000
    1.0000  1.0000  1.0000  1.0000  1.0000  1.0000  1.0000  1.0000
    1.0000  1.0000  1.0000  1.0000  1.0000  1.0000  1.0000  1.0000
    1.0000  1.0000  1.0000  1.0000  1.0000  1.0000  1.0000  1.0000
    1.0000  1.0000  1.0000  1.0000  1.0000  1.0000  1.0000  1.0000
    1.0000  1.0000  1.0000  1.0000  1.0000  1.0000  1.0000  1.0000
    1.0000  1.0000  1.0000  1.0000  1.0000  1.0000  1.0000  1.0000
    1.0000  1.0000  1.0000  1.0000  1.0000  1.0000  1.0000  1.0000
    1.0000  1.0000  1.0000  1.0000  1.0000  1.0000  1.0000  1.0000
    1.0000  1.0000  1.0000  1.0000  1.0000  1.0000  1.0000  1.0000
    1.0000  1.0000  1.0000  1.0000  1.0000  1.0000  1.0000  1.0000
    1.0000  1.0000  1.0000  1.0000  1.0000  1.0000  1.0000  1.0000
    1.0000  1.0000  1.0000  1.0000  1.0000  1.0000  1.0000  1.0000
    1.0000  1.0000  1.0000  1.0000  1.0000  1.0000  1.0000  1.0000
    1.0000  1.0000  1.0000  1.0000  1.0000  1.0000  0.0000  0.0000
    0.0000  0.0000  0.0000  0.0000  0.0000  0.0000  0.0000

