&control
    calculation = 'scf'
    wf_collect = .true.
    prefix = 'BN'
    outdir = '.'
/

&system
    ibrav = 0
    nat = 71
    ntyp = 2
    nspin = 2
    ecutwfc = 55
    starting_magnetization(1:2) = 0.5, 0.5
    occupations = 'from_input'
    nbnd = 151
/

&electrons
    mixing_beta = 0.7
    conv_thr = 1e-06
    scf_must_converge = .false.
    electron_maxstep = 60
/

&ions
/

ATOMIC_SPECIES
    B  10.811  B_ONCV_PBE-1.0.upf
    N  14.0067  N_ONCV_PBE-1.0.upf

CELL_PARAMETERS angstrom
        15.043730000       0.000000000       0.000000000
        -7.521865000      13.028252348       0.000000000
         0.000000000       0.000000000      20.000000000

K_POINTS automatic
    1  1  1    0  0  0

ATOMIC_POSITIONS crystal
B    0.1125312182 0.0556511738 0.0000000000
B    0.1122860572 0.2211524308 0.0000000000
B    0.1096092984 0.3873210495 0.0000000000
B    0.1072746887 0.5539793129 0.0000000000
B    0.1071148100 0.7205126886 0.0000000000
B    0.1088385391 0.8873344719 0.0000000000
B    0.2795510748 0.0580705178 0.0000000000
B    0.2853659781 0.2289910157 0.0000000000
B    0.2765788913 0.3896330558 0.0000000000
B    0.2734144633 0.5552995036 0.0000000000
B    0.2741786385 0.7219880889 0.0000000000
B    0.2756971554 0.8890991205 0.0000000000
B    0.4443198708 0.0565095160 0.0000000000
B    0.4499864249 0.2287337162 0.0000000000
B    0.4578521588 0.4093790222 0.0000000000
B    0.4385650012 0.5575949393 0.0000000000
B    0.4408742260 0.7227608123 0.0000000000
B    0.4421864492 0.8889018061 0.0000000000
B    0.6105191670 0.0526941263 0.0000000000
B    0.6141377640 0.2183570711 0.0000000000
N    0.6138363462 0.3823673601 0.0000000000
B    0.5867961810 0.5383390270 0.0000000000
B    0.6065150117 0.7195891911 0.0000000000
B    0.6088956438 0.8866088143 0.0000000000
B    0.7771723267 0.0513370461 0.0000000000
B    0.7788778700 0.2172907864 0.0000000000
B    0.7777970992 0.3820087388 0.0000000000
B    0.7674684930 0.5462184709 0.0000000000
B    0.7671866868 0.7108329506 0.0000000000
B    0.7749906466 0.8838593684 0.0000000000
B    0.9439512397 0.0521954080 0.0000000000
B    0.9448825210 0.2190488749 0.0000000000
B    0.9434885695 0.3856584756 0.0000000000
B    0.9396830512 0.5518645713 0.0000000000
B    0.9381112212 0.7166115790 0.0000000000
B    0.9405357357 0.8836628279 0.0000000000
N    0.0557777678 0.1096135730 0.0000000000
N    0.0558306657 0.2759133672 0.0000000000
N    0.0537820327 0.4425906116 0.0000000000
N    0.0510431677 0.6089923348 0.0000000000
N    0.0507267971 0.7749542193 0.0000000000
N    0.0536079475 0.9426775621 0.0000000000
N    0.2258679406 0.1150618602 0.0000000000
N    0.2240603570 0.2787844443 0.0000000000
N    0.2198910341 0.4441715275 0.0000000000
N    0.2180939739 0.6107067214 0.0000000000
N    0.2187376204 0.7774642243 0.0000000000
N    0.2211840167 0.9454150361 0.0000000000
N    0.3918618842 0.1155868419 0.0000000000
N    0.4010036358 0.2911662142 0.0000000000
N    0.3865275026 0.4474139499 0.0000000000
N    0.3838365477 0.6122839776 0.0000000000
N    0.3854660723 0.7780882056 0.0000000000
N    0.3872236768 0.9451517615 0.0000000000
N    0.5554833684 0.1086541693 0.0000000000
N    0.5628617088 0.2773892454 0.0000000000
N    0.5487681105 0.6096791023 0.0000000000
N    0.5519882247 0.7762667021 0.0000000000
N    0.5535727783 0.9424174652 0.0000000000
N    0.7218277203 0.1068319049 0.0000000000
N    0.7238058227 0.2722914819 0.0000000000
N    0.7188103240 0.4333329354 0.0000000000
N    0.7051000889 0.5952603920 0.0000000000
N    0.7173460414 0.7721201530 0.0000000000
N    0.7203395169 0.9403934279 0.0000000000
N    0.8885459109 0.1076662341 0.0000000000
N    0.8893567445 0.2743686265 0.0000000000
N    0.8874952897 0.4406720275 0.0000000000
N    0.8805782296 0.6042889813 0.0000000000
N    0.8811298937 0.7703128079 0.0000000000
N    0.8864970251 0.9403546463 0.0000000000
OCCUPATIONS
    1    1    1    1    1    1    1    1
    1    1    1    1    1    1    1    1
    1    1    1    1    1    1    1    1
    1    1    1    1    1    1    1    1
    1    1    1    1    1    1    1    1
    1    1    1    1    1    1    1    1
    1    1    1    1    1    1    1    1
    1    1    1    1    1    1    1    1
    1    1    1    1    1    1    1    1
    1    1    1    1    1    1    1    1
    1    1    1    1    1    1    1    1
    1    1    1    1    1    1    1    1
    1    1    1    1    1    1    1    1
    1    1    1    1    1    1    1    1
    1    1    1    1    1    1    1    1
    1    1    1    1    1    1    1    1
    1    1    1    1    1    1    1    1
    1    1    1    1    1    1    0    1
    0    0    0    0    0    0    0
    1    1    1    1    1    1    1    1
    1    1    1    1    1    1    1    1
    1    1    1    1    1    1    1    1
    1    1    1    1    1    1    1    1
    1    1    1    1    1    1    1    1
    1    1    1    1    1    1    1    1
    1    1    1    1    1    1    1    1
    1    1    1    1    1    1    1    1
    1    1    1    1    1    1    1    1
    1    1    1    1    1    1    1    1
    1    1    1    1    1    1    1    1
    1    1    1    1    1    1    1    1
    1    1    1    1    1    1    1    1
    1    1    1    1    1    1    1    1
    1    1    1    1    1    1    1    1
    1    1    1    1    1    1    1    1
    1    1    1    1    1    1    1    1
    1    1    1    1    1    1    0    0
    0    0    0    0    0    0    0

