&control
    calculation = 'scf'
    wf_collect = .true.
    prefix = 'BN'
/

&system
    ibrav = 0
    nat = 71
    ntyp = 2
    nspin = 2
    ecutwfc = 55
    starting_magnetization(1:2) = 0.5, 0.5
    occupations = 'from_input'
    nbnd = 151
/

&electrons
    mixing_beta = 0.7
    conv_thr = 1e-06
    scf_must_converge = .false.
    electron_maxstep = 60
/

&ions
/

ATOMIC_SPECIES
    B       10.8110  B_ONCV_PBE-1.0.upf
    N       14.0067  N_ONCV_PBE-1.0.upf

CELL_PARAMETERS angstrom
        15.043730000       0.000000000       0.000000000
        -7.521865000      13.028252348       0.000000000
         0.000000000       0.000000000      20.000000000

ATOMIC_POSITIONS crystal
    B           0.112635957       0.055842739       0.000000000
    B           0.113098988       0.221481500       0.000000000
    B           0.110152825       0.387496753       0.000000000
    B           0.107104812       0.554151038       0.000000000
    B           0.106839003       0.720753194       0.000000000
    B           0.108658156       0.887484069       0.000000000
    B           0.279199647       0.058219987       0.000000000
    B           0.285955725       0.229675427       0.000000000
    B           0.277688161       0.390723997       0.000000000
    B           0.273108196       0.555769224       0.000000000
    B           0.273880711       0.722290534       0.000000000
    B           0.275417786       0.889293321       0.000000000
    B           0.444102972       0.056579485       0.000000000
    B           0.447802631       0.228838103       0.000000000
    B           0.461788123       0.413793969       0.000000000
    B           0.437872524       0.558281936       0.000000000
    B           0.440340867       0.723000097       0.000000000
    B           0.442050868       0.889065201       0.000000000
    B           0.610690640       0.052002291       0.000000000
    B           0.615240724       0.217097328       0.000000000
    N           0.616427245       0.379715314       0.000000000
    B           0.582497365       0.534549762       0.000000000
    B           0.605443824       0.718513018       0.000000000
    B           0.608684729       0.886002324       0.000000000
    B           0.777409634       0.050634152       0.000000000
    B           0.779819471       0.216368745       0.000000000
    B           0.778982286       0.380871008       0.000000000
    B           0.767313661       0.548418165       0.000000000
    B           0.766587388       0.710379745       0.000000000
    B           0.774707297       0.883098878       0.000000000
    B           0.944182436       0.052002161       0.000000000
    B           0.945549929       0.218786809       0.000000000
    B           0.944166354       0.385511958       0.000000000
    B           0.939523790       0.552051584       0.000000000
    B           0.937892697       0.716953500       0.000000000
    B           0.940443876       0.883659067       0.000000000
    N           0.055931349       0.109688166       0.000000000
    N           0.056111045       0.275960779       0.000000000
    N           0.053873564       0.442675357       0.000000000
    N           0.050413755       0.608963627       0.000000000
    N           0.050430542       0.775008752       0.000000000
    N           0.053586212       0.942760891       0.000000000
    N           0.226024286       0.115260855       0.000000000
    N           0.224357302       0.279096514       0.000000000
    N           0.219916429       0.444671951       0.000000000
    N           0.217477781       0.611159944       0.000000000
    N           0.218352684       0.777789830       0.000000000
    N           0.221091757       0.945629887       0.000000000
    N           0.392182080       0.116131352       0.000000000
    N           0.401181921       0.291047466       0.000000000
    N           0.386593176       0.448598365       0.000000000
    N           0.382937456       0.613119523       0.000000000
    N           0.385011661       0.778713127       0.000000000
    N           0.387214426       0.945698666       0.000000000
    N           0.555794062       0.108528013       0.000000000
    N           0.564813994       0.278467956       0.000000000
    N           0.547572231       0.609641779       0.000000000
    N           0.551455709       0.776206847       0.000000000
    N           0.553518655       0.942306909       0.000000000
    N           0.722018989       0.106462640       0.000000000
    N           0.724333195       0.271740009       0.000000000
    N           0.717662276       0.431390157       0.000000000
    N           0.705289240       0.595218457       0.000000000
    N           0.717063807       0.771881832       0.000000000
    N           0.720257451       0.940071490       0.000000000
    N           0.888657237       0.107536732       0.000000000
    N           0.889749904       0.274200891       0.000000000
    N           0.887555525       0.440347091       0.000000000
    N           0.879952384       0.603957850       0.000000000
    N           0.880980914       0.770254758       0.000000000
    N           0.886475667       0.940248812       0.000000000

K_POINTS automatic
    1  1  1    0  0  0

OCCUPATIONS
    1.0000  1.0000  1.0000  1.0000  1.0000  1.0000  1.0000  1.0000
    1.0000  1.0000  1.0000  1.0000  1.0000  1.0000  1.0000  1.0000
    1.0000  1.0000  1.0000  1.0000  1.0000  1.0000  1.0000  1.0000
    1.0000  1.0000  1.0000  1.0000  1.0000  1.0000  1.0000  1.0000
    1.0000  1.0000  1.0000  1.0000  1.0000  1.0000  1.0000  1.0000
    1.0000  1.0000  1.0000  1.0000  1.0000  1.0000  1.0000  1.0000
    1.0000  1.0000  1.0000  1.0000  1.0000  1.0000  1.0000  1.0000
    1.0000  1.0000  1.0000  1.0000  1.0000  1.0000  1.0000  1.0000
    1.0000  1.0000  1.0000  1.0000  1.0000  1.0000  1.0000  1.0000
    1.0000  1.0000  1.0000  1.0000  1.0000  1.0000  1.0000  1.0000
    1.0000  1.0000  1.0000  1.0000  1.0000  1.0000  1.0000  1.0000
    1.0000  1.0000  1.0000  1.0000  1.0000  1.0000  1.0000  1.0000
    1.0000  1.0000  1.0000  1.0000  1.0000  1.0000  1.0000  1.0000
    1.0000  1.0000  1.0000  1.0000  1.0000  1.0000  1.0000  1.0000
    1.0000  1.0000  1.0000  1.0000  1.0000  1.0000  1.0000  1.0000
    1.0000  1.0000  1.0000  1.0000  1.0000  1.0000  1.0000  1.0000
    1.0000  1.0000  1.0000  1.0000  1.0000  1.0000  1.0000  1.0000
    1.0000  1.0000  1.0000  1.0000  1.0000  1.0000  0.0000  1.0000
    0.0000  0.0000  0.0000  0.0000  0.0000  0.0000  0.0000
    1.0000  1.0000  1.0000  1.0000  1.0000  1.0000  1.0000  1.0000
    1.0000  1.0000  1.0000  1.0000  1.0000  1.0000  1.0000  1.0000
    1.0000  1.0000  1.0000  1.0000  1.0000  1.0000  1.0000  1.0000
    1.0000  1.0000  1.0000  1.0000  1.0000  1.0000  1.0000  1.0000
    1.0000  1.0000  1.0000  1.0000  1.0000  1.0000  1.0000  1.0000
    1.0000  1.0000  1.0000  1.0000  1.0000  1.0000  1.0000  1.0000
    1.0000  1.0000  1.0000  1.0000  1.0000  1.0000  1.0000  1.0000
    1.0000  1.0000  1.0000  1.0000  1.0000  1.0000  1.0000  1.0000
    1.0000  1.0000  1.0000  1.0000  1.0000  1.0000  1.0000  1.0000
    1.0000  1.0000  1.0000  1.0000  1.0000  1.0000  1.0000  1.0000
    1.0000  1.0000  1.0000  1.0000  1.0000  1.0000  1.0000  1.0000
    1.0000  1.0000  1.0000  1.0000  1.0000  1.0000  1.0000  1.0000
    1.0000  1.0000  1.0000  1.0000  1.0000  1.0000  1.0000  1.0000
    1.0000  1.0000  1.0000  1.0000  1.0000  1.0000  1.0000  1.0000
    1.0000  1.0000  1.0000  1.0000  1.0000  1.0000  1.0000  1.0000
    1.0000  1.0000  1.0000  1.0000  1.0000  1.0000  1.0000  1.0000
    1.0000  1.0000  1.0000  1.0000  1.0000  1.0000  1.0000  1.0000
    1.0000  1.0000  1.0000  1.0000  1.0000  1.0000  0.0000  0.0000
    0.0000  0.0000  0.0000  0.0000  0.0000  0.0000  0.0000

