&control
    calculation = 'scf'
    wf_collect = .true.
    prefix = 'BN'
/

&system
    ibrav = 0
    nat = 71
    ntyp = 2
    nspin = 2
    ecutwfc = 55
    starting_magnetization(1:2) = 0.5, 0.5
    nbnd = 151
    tot_magnetization = 1
/

&electrons
    mixing_beta = 0.7
    conv_thr = 1e-08
/

&ions
/

ATOMIC_SPECIES
    B       10.8110  B_ONCV_PBE-1.0.upf
    N       14.0067  N_ONCV_PBE-1.0.upf

CELL_PARAMETERS angstrom
        15.043730000       0.000000000       0.000000000
        -7.521865000      13.028252348       0.000000000
         0.000000000       0.000000000      20.000000000

ATOMIC_POSITIONS crystal
    B           0.112642503       0.055854711       0.000000000
    B           0.113149797       0.221502066       0.000000000
    B           0.110186795       0.387507735       0.000000000
    B           0.107094195       0.554161771       0.000000000
    B           0.106821765       0.720768226       0.000000000
    B           0.108646882       0.887493419       0.000000000
    B           0.279177683       0.058229329       0.000000000
    B           0.285992584       0.229718203       0.000000000
    B           0.277757490       0.390792180       0.000000000
    B           0.273089054       0.555798582       0.000000000
    B           0.273862091       0.722309437       0.000000000
    B           0.275400325       0.889305459       0.000000000
    B           0.444089415       0.056583858       0.000000000
    B           0.447666144       0.228844628       0.000000000
    B           0.462034120       0.414069904       0.000000000
    B           0.437829245       0.558324873       0.000000000
    B           0.440307532       0.723015052       0.000000000
    B           0.442042395       0.889075413       0.000000000
    B           0.610701357       0.051959051       0.000000000
    B           0.615309659       0.217018594       0.000000000
    N           0.616589177       0.379549561       0.000000000
    B           0.582228689       0.534312933       0.000000000
    B           0.605376874       0.718445757       0.000000000
    B           0.608671546       0.885964418       0.000000000
    B           0.777424466       0.050590221       0.000000000
    B           0.779878321       0.216311117       0.000000000
    B           0.779056361       0.380799899       0.000000000
    B           0.767303984       0.548555646       0.000000000
    B           0.766549932       0.710351420       0.000000000
    B           0.774689588       0.883051347       0.000000000
    B           0.944196885       0.051990083       0.000000000
    B           0.945591642       0.218770430       0.000000000
    B           0.944208716       0.385502801       0.000000000
    B           0.939513837       0.552063272       0.000000000
    B           0.937879040       0.716974870       0.000000000
    B           0.940438135       0.883658832       0.000000000
    N           0.055940947       0.109692828       0.000000000
    N           0.056128569       0.275963742       0.000000000
    N           0.053879285       0.442680654       0.000000000
    N           0.050374417       0.608961833       0.000000000
    N           0.050412026       0.775012160       0.000000000
    N           0.053584853       0.942766099       0.000000000
    N           0.226034058       0.115273293       0.000000000
    N           0.224375861       0.279116018       0.000000000
    N           0.219918016       0.444703228       0.000000000
    N           0.217439269       0.611188270       0.000000000
    N           0.218328625       0.777810180       0.000000000
    N           0.221085990       0.945643315       0.000000000
    N           0.392202092       0.116165384       0.000000000
    N           0.401193063       0.291040045       0.000000000
    N           0.386597281       0.448672391       0.000000000
    N           0.382881262       0.613171745       0.000000000
    N           0.384983260       0.778752185       0.000000000
    N           0.387213847       0.945732847       0.000000000
    N           0.555813480       0.108520128       0.000000000
    N           0.564936012       0.278535375       0.000000000
    N           0.547497488       0.609639446       0.000000000
    N           0.551422426       0.776203106       0.000000000
    N           0.553515272       0.942299999       0.000000000
    N           0.722030943       0.106439561       0.000000000
    N           0.724366155       0.271705542       0.000000000
    N           0.717590523       0.431268733       0.000000000
    N           0.705301062       0.595215836       0.000000000
    N           0.717046167       0.771866937       0.000000000
    N           0.720252322       0.940051369       0.000000000
    N           0.888664195       0.107528638       0.000000000
    N           0.889774476       0.274190408       0.000000000
    N           0.887559290       0.440326783       0.000000000
    N           0.879913269       0.603937154       0.000000000
    N           0.880971603       0.770251130       0.000000000
    N           0.886474332       0.940242197       0.000000000

K_POINTS automatic
    1  1  1    0  0  0

