&control
    calculation = 'scf'
    wf_collect = .true.
    prefix = 'BN'
    outdir = '.'
/

&system
    ibrav = 0
    nat = 71
    ntyp = 2
    nspin = 2
    ecutwfc = 55
    starting_magnetization(1:2) = 0.5, 0.5
    nbnd = 151
    tot_magnetization = 1
/

&electrons
    mixing_beta = 0.7
    conv_thr = 1e-07
/

&ions
/

ATOMIC_SPECIES
    B  10.811  B_ONCV_PBE-1.0.upf
    N  14.0067  N_ONCV_PBE-1.0.upf

CELL_PARAMETERS angstrom
        15.043730000       0.000000000       0.000000000
        -7.521865000      13.028252348       0.000000000
         0.000000000       0.000000000      20.000000000

K_POINTS automatic
    1  1  1    0  0  0

ATOMIC_POSITIONS crystal
B    0.1126359565 0.0558427386 0.0000000000
B    0.1130989884 0.2214814996 0.0000000000
B    0.1101528248 0.3874967535 0.0000000000
B    0.1071048119 0.5541510385 0.0000000000
B    0.1068390029 0.7207531942 0.0000000000
B    0.1086581559 0.8874840695 0.0000000000
B    0.2791996467 0.0582199874 0.0000000000
B    0.2859557246 0.2296754269 0.0000000000
B    0.2776881609 0.3907239966 0.0000000000
B    0.2731081961 0.5557692243 0.0000000000
B    0.2738807114 0.7222905344 0.0000000000
B    0.2754177858 0.8892933214 0.0000000000
B    0.4441029716 0.0565794849 0.0000000000
B    0.4478026313 0.2288381034 0.0000000000
B    0.4617881227 0.4137939694 0.0000000000
B    0.4378725244 0.5582819361 0.0000000000
B    0.4403408669 0.7230000971 0.0000000000
B    0.4420508684 0.8890652006 0.0000000000
B    0.6106906399 0.0520022911 0.0000000000
B    0.6152407240 0.2170973278 0.0000000000
N    0.6164272454 0.3797153137 0.0000000000
B    0.5824973650 0.5345497621 0.0000000000
B    0.6054438237 0.7185130176 0.0000000000
B    0.6086847286 0.8860023240 0.0000000000
B    0.7774096339 0.0506341517 0.0000000000
B    0.7798194709 0.2163687448 0.0000000000
B    0.7789822864 0.3808710076 0.0000000000
B    0.7673136610 0.5484181653 0.0000000000
B    0.7665873885 0.7103797451 0.0000000000
B    0.7747072970 0.8830988779 0.0000000000
B    0.9441824358 0.0520021608 0.0000000000
B    0.9455499290 0.2187868093 0.0000000000
B    0.9441663544 0.3855119580 0.0000000000
B    0.9395237904 0.5520515841 0.0000000000
B    0.9378926973 0.7169534999 0.0000000000
B    0.9404438757 0.8836590671 0.0000000000
N    0.0559313486 0.1096881658 0.0000000000
N    0.0561110449 0.2759607792 0.0000000000
N    0.0538735639 0.4426753572 0.0000000000
N    0.0504137549 0.6089636267 0.0000000000
N    0.0504305418 0.7750087521 0.0000000000
N    0.0535862115 0.9427608909 0.0000000000
N    0.2260242862 0.1152608554 0.0000000000
N    0.2243573018 0.2790965140 0.0000000000
N    0.2199164285 0.4446719515 0.0000000000
N    0.2174777811 0.6111599438 0.0000000000
N    0.2183526837 0.7777898300 0.0000000000
N    0.2210917568 0.9456298865 0.0000000000
N    0.3921820803 0.1161313523 0.0000000000
N    0.4011819206 0.2910474662 0.0000000000
N    0.3865931762 0.4485983652 0.0000000000
N    0.3829374557 0.6131195232 0.0000000000
N    0.3850116611 0.7787131272 0.0000000000
N    0.3872144256 0.9456986655 0.0000000000
N    0.5557940620 0.1085280132 0.0000000000
N    0.5648139944 0.2784679558 0.0000000000
N    0.5475722305 0.6096417791 0.0000000000
N    0.5514557088 0.7762068468 0.0000000000
N    0.5535186551 0.9423069092 0.0000000000
N    0.7220189891 0.1064626401 0.0000000000
N    0.7243331948 0.2717400092 0.0000000000
N    0.7176622760 0.4313901570 0.0000000000
N    0.7052892402 0.5952184568 0.0000000000
N    0.7170638069 0.7718818321 0.0000000000
N    0.7202574513 0.9400714903 0.0000000000
N    0.8886572373 0.1075367317 0.0000000000
N    0.8897499037 0.2742008914 0.0000000000
N    0.8875555249 0.4403470915 0.0000000000
N    0.8799523840 0.6039578501 0.0000000000
N    0.8809809137 0.7702547583 0.0000000000
N    0.8864756667 0.9402488119 0.0000000000
