&control
    calculation = 'scf'
    wf_collect = .true.
    prefix = 'BN'
    outdir = '.'
/

&system
    ibrav = 0
    nat = 71
    ntyp = 2
    nspin = 2
    ecutwfc = 55
    starting_magnetization(1:2) = 0.5, 0.5
    nbnd = 151
    tot_magnetization = 1
/

&electrons
    mixing_beta = 0.7
    conv_thr = 1e-07
/

&ions
/

ATOMIC_SPECIES
    B  10.811  B_ONCV_PBE-1.0.upf
    N  14.0067  N_ONCV_PBE-1.0.upf

CELL_PARAMETERS angstrom
        15.043730000       0.000000000       0.000000000
        -7.521865000      13.028252348       0.000000000
         0.000000000       0.000000000      20.000000000

K_POINTS automatic
    1  1  1    0  0  0

ATOMIC_POSITIONS crystal
B    0.1125574028 0.0556990650 0.0000000000
B    0.1124892900 0.2212346980 0.0000000000
B    0.1097451800 0.3873649755 0.0000000000
B    0.1072322195 0.5540222443 0.0000000000
B    0.1070458583 0.7205728150 0.0000000000
B    0.1087934432 0.8873718713 0.0000000000
B    0.2794632178 0.0581078853 0.0000000000
B    0.2855134148 0.2291621185 0.0000000000
B    0.2768562087 0.3899057910 0.0000000000
B    0.2733378965 0.5554169338 0.0000000000
B    0.2741041567 0.7220637003 0.0000000000
B    0.2756273130 0.8891476708 0.0000000000
B    0.4442656460 0.0565270082 0.0000000000
B    0.4494404765 0.2287598130 0.0000000000
B    0.4588361498 0.4104827590 0.0000000000
B    0.4383918820 0.5577666885 0.0000000000
B    0.4407408863 0.7228206335 0.0000000000
B    0.4421525540 0.8889426548 0.0000000000
B    0.6105620352 0.0525211675 0.0000000000
B    0.6144135040 0.2180421352 0.0000000000
N    0.6144840710 0.3817043485 0.0000000000
B    0.5857214770 0.5373917108 0.0000000000
B    0.6062472147 0.7193201477 0.0000000000
B    0.6088429150 0.8864571918 0.0000000000
B    0.7772316535 0.0511613225 0.0000000000
B    0.7791132702 0.2170602760 0.0000000000
B    0.7780933960 0.3817243060 0.0000000000
B    0.7674297850 0.5467683945 0.0000000000
B    0.7670368623 0.7107196492 0.0000000000
B    0.7749198093 0.8836692457 0.0000000000
B    0.9440090387 0.0521470962 0.0000000000
B    0.9450493730 0.2189833585 0.0000000000
B    0.9436580157 0.3856218463 0.0000000000
B    0.9396432360 0.5519113245 0.0000000000
B    0.9380565902 0.7166970593 0.0000000000
B    0.9405127708 0.8836618877 0.0000000000
N    0.0558161630 0.1096322212 0.0000000000
N    0.0559007605 0.2759252202 0.0000000000
N    0.0538049155 0.4426117980 0.0000000000
N    0.0508858145 0.6089851578 0.0000000000
N    0.0506527332 0.7749678525 0.0000000000
N    0.0536025135 0.9426983943 0.0000000000
N    0.2259070270 0.1151116090 0.0000000000
N    0.2241345932 0.2788624618 0.0000000000
N    0.2198973827 0.4442966335 0.0000000000
N    0.2179399257 0.6108200270 0.0000000000
N    0.2186413862 0.7775456257 0.0000000000
N    0.2211609518 0.9454687487 0.0000000000
N    0.3919419332 0.1157229695 0.0000000000
N    0.4010482070 0.2911365272 0.0000000000
N    0.3865439210 0.4477100538 0.0000000000
N    0.3836117747 0.6124928640 0.0000000000
N    0.3853524695 0.7782444360 0.0000000000
N    0.3872213640 0.9452884875 0.0000000000
N    0.5555610418 0.1086226302 0.0000000000
N    0.5633497803 0.2776589230 0.0000000000
N    0.5484691405 0.6096697715 0.0000000000
N    0.5518550957 0.7762517383 0.0000000000
N    0.5535592475 0.9423898263 0.0000000000
N    0.7218755375 0.1067395888 0.0000000000
N    0.7239376657 0.2721536138 0.0000000000
N    0.7185233120 0.4328472408 0.0000000000
N    0.7051473768 0.5952499083 0.0000000000
N    0.7172754827 0.7720605727 0.0000000000
N    0.7203190005 0.9403129435 0.0000000000
N    0.8885737425 0.1076338585 0.0000000000
N    0.8894550343 0.2743266927 0.0000000000
N    0.8875103485 0.4405907935 0.0000000000
N    0.8804217682 0.6042061985 0.0000000000
N    0.8810926487 0.7702982955 0.0000000000
N    0.8864916855 0.9403281877 0.0000000000
