&control
    calculation = 'scf'
    prefix = 'di'
    verbosity = 'high'
    wf_collect = .true.
/

&system
    ibrav = 1
    a = 7.136588
    nat = 63
    ntyp = 2
    ecutwfc = 70
    tot_charge = -1
    nspin = 2
    occupations = 'smearing'
    smearing = 'mv'
    degauss = 0.001
    starting_magnetization(1:2) = 0.2, 0.2
    tot_magnetization = 0
/

&electrons
    mixing_beta = 0.5
/

&ions
/

ATOMIC_SPECIES
    C       12.0111  C_ONCV_PBE-1.0.upf
    N       14.0067  N_ONCV_PBE-1.0.upf

ATOMIC_POSITIONS crystal
    C           0.375782621       0.375782621       0.873566004
    C           0.500279655       0.000453512       0.000453512
    C           0.499975214      -0.000462968       0.499975214
    C           0.000453512       0.500279655       0.000453512
    C          -0.000462968       0.499975214       0.499975214
    C          -0.000123039      -0.000123039      -0.000123039
    C           0.000453512       0.000453512       0.500279655
    C           0.250473428       0.250473428      -0.000875633
    C           0.251456095       0.251456095       0.496483181
    C           0.250131333       0.749143137       0.000832912
    C           0.250992902       0.748686782       0.502147001
    C           0.749143137       0.250131333       0.000832912
    C           0.748686782       0.250992902       0.502147001
    C           0.749498169       0.749498169      -0.000897254
    C           0.499975214       0.499975214      -0.000462968
    C           0.748513004       0.748513004       0.498280832
    C           0.502147001       0.250992902       0.748686782
    C           0.502147001       0.748686782       0.250992902
    C           0.498280832       0.748513004       0.748513004
    C          -0.000875633       0.250473428       0.250473428
    C           0.000832912       0.250131333       0.749143137
    C           0.000832912       0.749143137       0.250131333
    C          -0.000897254       0.749498169       0.749498169
    C           0.251456095       0.496483181       0.251456095
    C           0.250992902       0.502147001       0.748686782
    C           0.250473428      -0.000875633       0.250473428
    C           0.250131333       0.000832912       0.749143137
    C           0.748686782       0.502147001       0.250992902
    C           0.748513004       0.498280832       0.748513004
    C           0.496483181       0.251456095       0.251456095
    C           0.749143137       0.000832912       0.250131333
    C           0.624202016       0.873591615       0.624202016
    C           0.636354218       0.362033640       0.636354218
    C           0.375670322       0.876223132       0.876223132
    C           0.375782621       0.873566004       0.375782621
    C           0.876223132       0.375670322       0.876223132
    C           0.873566004       0.375782621       0.375782621
    C           0.874469393       0.874469393       0.874469393
    C           0.876223132       0.876223132       0.375670322
    C           0.125369054       0.125369054       0.874440410
    C           0.124622171       0.124622171       0.374873718
    C           0.123536070       0.624306975       0.876173017
    C           0.126538388       0.623512965       0.376391423
    C           0.624306975       0.123536070       0.876173017
    C           0.623512965       0.126538388       0.376391423
    C           0.624306975       0.876173017       0.123536070
    C           0.624202016       0.624202016       0.873591615
    C           0.374873718       0.124622171       0.124622171
    C           0.376391423       0.126538388       0.623512965
    C           0.376391423       0.623512965       0.126538388
    C           0.362033640       0.636354218       0.636354218
    C           0.874440410       0.125369054       0.125369054
    C           0.876173017       0.123536070       0.624306975
    C           0.876173017       0.624306975       0.123536070
    C           0.873591615       0.624202016       0.624202016
    C           0.124622171       0.374873718       0.124622171
    C           0.126538388       0.376391423       0.623512965
    C           0.125369054       0.874440410       0.125369054
    C           0.123536070       0.876173017       0.624306975
    C           0.623512965       0.376391423       0.126538388
    C           0.636354218       0.636354218       0.362033640
    C           0.749498169      -0.000897254       0.749498169
    N           0.368039048       0.368039048       0.368039048

K_POINTS automatic
    1  1  1    0  0  0

