&control
    calculation = 'scf'
    prefix = 'di'
    verbosity = 'high'
    wf_collect = .true.
/

&system
    ibrav = 1
    a = 7.136588
    nat = 63
    ntyp = 2
    ecutwfc = 70
    tot_charge = -1
    nspin = 2
    occupations = 'from_input'
    nbnd = 152
    starting_magnetization(1:2) = 0.5, 0.5
/

&electrons
    mixing_beta = 0.5
/

&ions
/

ATOMIC_SPECIES
    C  12.0111  C_ONCV_PBE-1.0.upf
    N  14.0067  N_ONCV_PBE-1.0.upf

ATOMIC_POSITIONS crystal
    C         0.375776558       0.375776558       0.873582337
    C         0.500249788       0.000418740       0.000418740
    C         0.499985687      -0.000411314       0.499985687
    C         0.000418740       0.500249788       0.000418740
    C        -0.000411314       0.499985687       0.499985687
    C        -0.000121532      -0.000121532      -0.000121532
    C         0.000418740       0.000418740       0.500249788
    C         0.250440313       0.250440313      -0.000922110
    C         0.251347376       0.251347376       0.496256939
    C         0.250167653       0.749127908       0.000855272
    C         0.251208897       0.748565197       0.502079601
    C         0.749127908       0.250167653       0.000855272
    C         0.748565197       0.251208897       0.502079601
    C         0.749518276       0.749518276      -0.000806445
    C         0.499985687       0.499985687      -0.000411314
    C         0.748594975       0.748594975       0.498346666
    C         0.502079601       0.251208897       0.748565197
    C         0.502079601       0.748565197       0.251208897
    C         0.498346666       0.748594975       0.748594975
    C        -0.000922110       0.250440313       0.250440313
    C         0.000855272       0.250167653       0.749127908
    C         0.000855272       0.749127908       0.250167653
    C        -0.000806445       0.749518276       0.749518276
    C         0.251347376       0.496256939       0.251347376
    C         0.251208897       0.502079601       0.748565197
    C         0.250440313      -0.000922110       0.250440313
    C         0.250167653       0.000855272       0.749127908
    C         0.748565197       0.502079601       0.251208897
    C         0.748594975       0.498346666       0.748594975
    C         0.496256939       0.251347376       0.251347376
    C         0.749127908       0.000855272       0.250167653
    C         0.624264565       0.873703812       0.624264565
    C         0.636137682       0.362745835       0.636137682
    C         0.375699942       0.876220343       0.876220343
    C         0.375776558       0.873582337       0.375776558
    C         0.876220343       0.375699942       0.876220343
    C         0.873582337       0.375776558       0.375776558
    C         0.874501184       0.874501184       0.874501184
    C         0.876220343       0.876220343       0.375699942
    C         0.125370975       0.125370975       0.874414625
    C         0.124520170       0.124520170       0.374872709
    C         0.123645708       0.624339374       0.876129691
    C         0.126612333       0.623435428       0.376380585
    C         0.624339374       0.123645708       0.876129691
    C         0.623435428       0.126612333       0.376380585
    C         0.624339374       0.876129691       0.123645708
    C         0.624264565       0.624264565       0.873703812
    C         0.374872709       0.124520170       0.124520170
    C         0.376380585       0.126612333       0.623435428
    C         0.376380585       0.623435428       0.126612333
    C         0.362745835       0.636137682       0.636137682
    C         0.874414625       0.125370975       0.125370975
    C         0.876129691       0.123645708       0.624339374
    C         0.876129691       0.624339374       0.123645708
    C         0.873703812       0.624264565       0.624264565
    C         0.124520170       0.374872709       0.124520170
    C         0.126612333       0.376380585       0.623435428
    C         0.125370975       0.874414625       0.125370975
    C         0.123645708       0.876129691       0.624339374
    C         0.623435428       0.376380585       0.126612333
    C         0.636137682       0.636137682       0.362745835
    C         0.749518276      -0.000806445       0.749518276
    N         0.367600955       0.367600955       0.367600955

K_POINTS automatic
    3  3  3    0  0  0

OCCUPATIONS
    1.0000  1.0000  1.0000  1.0000  1.0000  1.0000  1.0000  1.0000
    1.0000  1.0000  1.0000  1.0000  1.0000  1.0000  1.0000  1.0000
    1.0000  1.0000  1.0000  1.0000  1.0000  1.0000  1.0000  1.0000
    1.0000  1.0000  1.0000  1.0000  1.0000  1.0000  1.0000  1.0000
    1.0000  1.0000  1.0000  1.0000  1.0000  1.0000  1.0000  1.0000
    1.0000  1.0000  1.0000  1.0000  1.0000  1.0000  1.0000  1.0000
    1.0000  1.0000  1.0000  1.0000  1.0000  1.0000  1.0000  1.0000
    1.0000  1.0000  1.0000  1.0000  1.0000  1.0000  1.0000  1.0000
    1.0000  1.0000  1.0000  1.0000  1.0000  1.0000  1.0000  1.0000
    1.0000  1.0000  1.0000  1.0000  1.0000  1.0000  1.0000  1.0000
    1.0000  1.0000  1.0000  1.0000  1.0000  1.0000  1.0000  1.0000
    1.0000  1.0000  1.0000  1.0000  1.0000  1.0000  1.0000  1.0000
    1.0000  1.0000  1.0000  1.0000  1.0000  1.0000  1.0000  1.0000
    1.0000  1.0000  1.0000  1.0000  1.0000  1.0000  1.0000  1.0000
    1.0000  1.0000  1.0000  1.0000  1.0000  1.0000  1.0000  1.0000
    1.0000  1.0000  1.0000  1.0000  1.0000  1.0000  1.0000  1.0000
    0.0000  0.0000  0.0000  0.0000  0.0000  0.0000  0.0000  0.0000
    0.0000  0.0000  0.0000  0.0000  0.0000  0.0000  0.0000  0.0000
    0.0000  0.0000  0.0000  0.0000  0.0000  0.0000  0.0000  0.0000
    1.0000  1.0000  1.0000  1.0000  1.0000  1.0000  1.0000  1.0000
    1.0000  1.0000  1.0000  1.0000  1.0000  1.0000  1.0000  1.0000
    1.0000  1.0000  1.0000  1.0000  1.0000  1.0000  1.0000  1.0000
    1.0000  1.0000  1.0000  1.0000  1.0000  1.0000  1.0000  1.0000
    1.0000  1.0000  1.0000  1.0000  1.0000  1.0000  1.0000  1.0000
    1.0000  1.0000  1.0000  1.0000  1.0000  1.0000  1.0000  1.0000
    1.0000  1.0000  1.0000  1.0000  1.0000  1.0000  1.0000  1.0000
    1.0000  1.0000  1.0000  1.0000  1.0000  1.0000  1.0000  1.0000
    1.0000  1.0000  1.0000  1.0000  1.0000  1.0000  1.0000  1.0000
    1.0000  1.0000  1.0000  1.0000  1.0000  1.0000  1.0000  1.0000
    1.0000  1.0000  1.0000  1.0000  1.0000  1.0000  1.0000  1.0000
    1.0000  1.0000  1.0000  1.0000  1.0000  1.0000  1.0000  1.0000
    1.0000  1.0000  1.0000  1.0000  1.0000  1.0000  1.0000  1.0000
    1.0000  1.0000  1.0000  1.0000  1.0000  1.0000  1.0000  1.0000
    1.0000  1.0000  1.0000  1.0000  1.0000  1.0000  1.0000  1.0000
    1.0000  1.0000  1.0000  1.0000  1.0000  0.0000  1.0000  0.0000
    0.0000  0.0000  0.0000  0.0000  0.0000  0.0000  0.0000  0.0000
    0.0000  0.0000  0.0000  0.0000  0.0000  0.0000  0.0000  0.0000
    0.0000  0.0000  0.0000  0.0000  0.0000  0.0000  0.0000  0.0000

