&control
    calculation = 'scf'
    wf_collect = .true.
    prefix = 'BN'
/

&system
    ibrav = 0
    nat = 71
    ntyp = 2
    nspin = 2
    ecutwfc = 55
    starting_magnetization(1:2) = 0.5, 0.5
    occupations = 'from_input'
    nbnd = 151
/

&electrons
    mixing_beta = 0.7
    conv_thr = 1e-06
    scf_must_converge = .false.
    electron_maxstep = 60
/

&ions
/

ATOMIC_SPECIES
    B       10.8110  B_ONCV_PBE-1.0.upf
    N       14.0067  N_ONCV_PBE-1.0.upf

CELL_PARAMETERS angstrom
        15.043730000       0.000000000       0.000000000
        -7.521865000      13.028252348       0.000000000
         0.000000000       0.000000000      20.000000000

ATOMIC_POSITIONS crystal
    B           0.112629410       0.055830766       0.000000000
    B           0.113048180       0.221460933       0.000000000
    B           0.110118854       0.387485772       0.000000000
    B           0.107115429       0.554140306       0.000000000
    B           0.106856241       0.720738163       0.000000000
    B           0.108669430       0.887474720       0.000000000
    B           0.279221611       0.058210646       0.000000000
    B           0.285918865       0.229632651       0.000000000
    B           0.277618832       0.390655813       0.000000000
    B           0.273127338       0.555739867       0.000000000
    B           0.273899332       0.722271632       0.000000000
    B           0.275435246       0.889281184       0.000000000
    B           0.444116528       0.056575112       0.000000000
    B           0.447939118       0.228831579       0.000000000
    B           0.461542125       0.413518035       0.000000000
    B           0.437915804       0.558238999       0.000000000
    B           0.440374202       0.722985142       0.000000000
    B           0.442059342       0.889054988       0.000000000
    B           0.610679923       0.052045531       0.000000000
    B           0.615171789       0.217176062       0.000000000
    N           0.616265314       0.379881067       0.000000000
    B           0.582766041       0.534786591       0.000000000
    B           0.605510773       0.718580278       0.000000000
    B           0.608697911       0.886040230       0.000000000
    B           0.777394802       0.050678083       0.000000000
    B           0.779760621       0.216426372       0.000000000
    B           0.778908212       0.380942116       0.000000000
    B           0.767323338       0.548280684       0.000000000
    B           0.766624845       0.710408070       0.000000000
    B           0.774725006       0.883146409       0.000000000
    B           0.944167986       0.052014239       0.000000000
    B           0.945508216       0.218803188       0.000000000
    B           0.944123993       0.385521115       0.000000000
    B           0.939533744       0.552039896       0.000000000
    B           0.937906355       0.716932130       0.000000000
    B           0.940449617       0.883659302       0.000000000
    N           0.055921750       0.109683504       0.000000000
    N           0.056093521       0.275957816       0.000000000
    N           0.053867843       0.442670061       0.000000000
    N           0.050453093       0.608965421       0.000000000
    N           0.050449058       0.775005344       0.000000000
    N           0.053587570       0.942755683       0.000000000
    N           0.226014515       0.115248418       0.000000000
    N           0.224338743       0.279077010       0.000000000
    N           0.219914841       0.444640675       0.000000000
    N           0.217516293       0.611131617       0.000000000
    N           0.218376742       0.777769480       0.000000000
    N           0.221097523       0.945616458       0.000000000
    N           0.392162068       0.116097320       0.000000000
    N           0.401170778       0.291054888       0.000000000
    N           0.386589072       0.448524339       0.000000000
    N           0.382993649       0.613067302       0.000000000
    N           0.385040062       0.778674070       0.000000000
    N           0.387215004       0.945664484       0.000000000
    N           0.555774644       0.108535898       0.000000000
    N           0.564691977       0.278400536       0.000000000
    N           0.547646973       0.609644112       0.000000000
    N           0.551488991       0.776210588       0.000000000
    N           0.553522038       0.942313819       0.000000000
    N           0.722007035       0.106485719       0.000000000
    N           0.724300234       0.271774476       0.000000000
    N           0.717734029       0.431511581       0.000000000
    N           0.705277418       0.595221078       0.000000000
    N           0.717081447       0.771896727       0.000000000
    N           0.720262580       0.940091611       0.000000000
    N           0.888650279       0.107544826       0.000000000
    N           0.889725331       0.274211375       0.000000000
    N           0.887551760       0.440367400       0.000000000
    N           0.879991499       0.603978546       0.000000000
    N           0.880990225       0.770258386       0.000000000
    N           0.886477002       0.940255427       0.000000000

K_POINTS automatic
    1  1  1    0  0  0

OCCUPATIONS
    1.0000  1.0000  1.0000  1.0000  1.0000  1.0000  1.0000  1.0000
    1.0000  1.0000  1.0000  1.0000  1.0000  1.0000  1.0000  1.0000
    1.0000  1.0000  1.0000  1.0000  1.0000  1.0000  1.0000  1.0000
    1.0000  1.0000  1.0000  1.0000  1.0000  1.0000  1.0000  1.0000
    1.0000  1.0000  1.0000  1.0000  1.0000  1.0000  1.0000  1.0000
    1.0000  1.0000  1.0000  1.0000  1.0000  1.0000  1.0000  1.0000
    1.0000  1.0000  1.0000  1.0000  1.0000  1.0000  1.0000  1.0000
    1.0000  1.0000  1.0000  1.0000  1.0000  1.0000  1.0000  1.0000
    1.0000  1.0000  1.0000  1.0000  1.0000  1.0000  1.0000  1.0000
    1.0000  1.0000  1.0000  1.0000  1.0000  1.0000  1.0000  1.0000
    1.0000  1.0000  1.0000  1.0000  1.0000  1.0000  1.0000  1.0000
    1.0000  1.0000  1.0000  1.0000  1.0000  1.0000  1.0000  1.0000
    1.0000  1.0000  1.0000  1.0000  1.0000  1.0000  1.0000  1.0000
    1.0000  1.0000  1.0000  1.0000  1.0000  1.0000  1.0000  1.0000
    1.0000  1.0000  1.0000  1.0000  1.0000  1.0000  1.0000  1.0000
    1.0000  1.0000  1.0000  1.0000  1.0000  1.0000  1.0000  1.0000
    1.0000  1.0000  1.0000  1.0000  1.0000  1.0000  1.0000  1.0000
    1.0000  1.0000  1.0000  1.0000  1.0000  1.0000  0.0000  1.0000
    0.0000  0.0000  0.0000  0.0000  0.0000  0.0000  0.0000
    1.0000  1.0000  1.0000  1.0000  1.0000  1.0000  1.0000  1.0000
    1.0000  1.0000  1.0000  1.0000  1.0000  1.0000  1.0000  1.0000
    1.0000  1.0000  1.0000  1.0000  1.0000  1.0000  1.0000  1.0000
    1.0000  1.0000  1.0000  1.0000  1.0000  1.0000  1.0000  1.0000
    1.0000  1.0000  1.0000  1.0000  1.0000  1.0000  1.0000  1.0000
    1.0000  1.0000  1.0000  1.0000  1.0000  1.0000  1.0000  1.0000
    1.0000  1.0000  1.0000  1.0000  1.0000  1.0000  1.0000  1.0000
    1.0000  1.0000  1.0000  1.0000  1.0000  1.0000  1.0000  1.0000
    1.0000  1.0000  1.0000  1.0000  1.0000  1.0000  1.0000  1.0000
    1.0000  1.0000  1.0000  1.0000  1.0000  1.0000  1.0000  1.0000
    1.0000  1.0000  1.0000  1.0000  1.0000  1.0000  1.0000  1.0000
    1.0000  1.0000  1.0000  1.0000  1.0000  1.0000  1.0000  1.0000
    1.0000  1.0000  1.0000  1.0000  1.0000  1.0000  1.0000  1.0000
    1.0000  1.0000  1.0000  1.0000  1.0000  1.0000  1.0000  1.0000
    1.0000  1.0000  1.0000  1.0000  1.0000  1.0000  1.0000  1.0000
    1.0000  1.0000  1.0000  1.0000  1.0000  1.0000  1.0000  1.0000
    1.0000  1.0000  1.0000  1.0000  1.0000  1.0000  1.0000  1.0000
    1.0000  1.0000  1.0000  1.0000  1.0000  1.0000  0.0000  0.0000
    0.0000  0.0000  0.0000  0.0000  0.0000  0.0000  0.0000

