&control
    calculation = 'scf'
    prefix = 'di'
    verbosity = 'high'
    wf_collect = .true.
/

&system
    ibrav = 1
    a = 7.136588
    nat = 63
    ntyp = 2
    ecutwfc = 70
    tot_charge = -1
    nspin = 2
    occupations = 'smearing'
    smearing = 'mv'
    degauss = 0.001
    starting_magnetization(1:2) = 0.2, 0.2
    tot_magnetization = 0
/

&electrons
    mixing_beta = 0.5
/

&ions
/

ATOMIC_SPECIES
    C       12.0111  C_ONCV_PBE-1.0.upf
    N       14.0067  N_ONCV_PBE-1.0.upf

ATOMIC_POSITIONS crystal
    C           0.375725018       0.375725018       0.873721169
    C           0.499995922       0.000123179       0.000123179
    C           0.500074705       0.000027746       0.500074705
    C           0.000123179       0.499995922       0.000123179
    C           0.000027746       0.500074705       0.500074705
    C          -0.000108717      -0.000108717      -0.000108717
    C           0.000123179       0.000123179       0.499995922
    C           0.250158836       0.250158836      -0.001317159
    C           0.250423266       0.250423266       0.494333880
    C           0.250476372       0.748998457       0.001045329
    C           0.253044857       0.747531721       0.501506702
    C           0.748998457       0.250476372       0.001045329
    C           0.747531721       0.253044857       0.501506702
    C           0.749689182       0.749689182      -0.000034563
    C           0.500074705       0.500074705       0.000027746
    C           0.749291727       0.749291727       0.498906246
    C           0.501506702       0.253044857       0.747531721
    C           0.501506702       0.747531721       0.253044857
    C           0.498906246       0.749291727       0.749291727
    C          -0.001317159       0.250158836       0.250158836
    C           0.001045329       0.250476372       0.748998457
    C           0.001045329       0.748998457       0.250476372
    C          -0.000034563       0.749689182       0.749689182
    C           0.250423266       0.494333880       0.250423266
    C           0.253044857       0.501506702       0.747531721
    C           0.250158836      -0.001317159       0.250158836
    C           0.250476372       0.001045329       0.748998457
    C           0.747531721       0.501506702       0.253044857
    C           0.749291727       0.498906246       0.749291727
    C           0.494333880       0.250423266       0.250423266
    C           0.748998457       0.001045329       0.250476372
    C           0.624796229       0.874657489       0.624796229
    C           0.634297129       0.368799491       0.634297129
    C           0.375951711       0.876196636       0.876196636
    C           0.375725018       0.873721169       0.375725018
    C           0.876196636       0.375951711       0.876196636
    C           0.873721169       0.375725018       0.375725018
    C           0.874771409       0.874771409       0.874771409
    C           0.876196636       0.876196636       0.375951711
    C           0.125387298       0.125387298       0.874195458
    C           0.123653167       0.123653167       0.374864136
    C           0.124577628       0.624614767       0.875761418
    C           0.127240866       0.622776358       0.376288464
    C           0.624614767       0.124577628       0.875761418
    C           0.622776358       0.127240866       0.376288464
    C           0.624614767       0.875761418       0.124577628
    C           0.624796229       0.624796229       0.874657489
    C           0.374864136       0.123653167       0.123653167
    C           0.376288464       0.127240866       0.622776358
    C           0.376288464       0.622776358       0.127240866
    C           0.368799491       0.634297129       0.634297129
    C           0.874195458       0.125387298       0.125387298
    C           0.875761418       0.124577628       0.624614767
    C           0.875761418       0.624614767       0.124577628
    C           0.874657489       0.624796229       0.624796229
    C           0.123653167       0.374864136       0.123653167
    C           0.127240866       0.376288464       0.622776358
    C           0.125387298       0.874195458       0.125387298
    C           0.124577628       0.875761418       0.624614767
    C           0.622776358       0.376288464       0.127240866
    C           0.634297129       0.634297129       0.368799491
    C           0.749689182      -0.000034563       0.749689182
    N           0.363877163       0.363877163       0.363877163

K_POINTS automatic
    1  1  1    0  0  0

