&control
    calculation = 'scf'
    wf_collect = .true.
    prefix = 'BN'
/

&system
    ibrav = 0
    nat = 71
    ntyp = 2
    nspin = 2
    ecutwfc = 55
    starting_magnetization(1:2) = 0.5, 0.5
    occupations = 'from_input'
    nbnd = 151
/

&electrons
    mixing_beta = 0.7
    conv_thr = 1e-06
    scf_must_converge = .false.
    electron_maxstep = 60
/

&ions
/

ATOMIC_SPECIES
    B       10.8110  B_ONCV_PBE-1.0.upf
    N       14.0067  N_ONCV_PBE-1.0.upf

CELL_PARAMETERS angstrom
        15.043730000       0.000000000       0.000000000
        -7.521865000      13.028252348       0.000000000
         0.000000000       0.000000000      20.000000000

ATOMIC_POSITIONS crystal
    B           0.112590133       0.055758929       0.000000000
    B           0.112743331       0.221337532       0.000000000
    B           0.109915032       0.387419883       0.000000000
    B           0.107179133       0.554075908       0.000000000
    B           0.106959668       0.720647973       0.000000000
    B           0.108737074       0.887418621       0.000000000
    B           0.279353397       0.058154595       0.000000000
    B           0.285697711       0.229375997       0.000000000
    B           0.277202856       0.390246710       0.000000000
    B           0.273242188       0.555563721       0.000000000
    B           0.274011055       0.722158215       0.000000000
    B           0.275540010       0.889208359       0.000000000
    B           0.444197865       0.056548873       0.000000000
    B           0.448758041       0.228792434       0.000000000
    B           0.460066138       0.411862430       0.000000000
    B           0.438175483       0.557981375       0.000000000
    B           0.440574211       0.722895410       0.000000000
    B           0.442110185       0.888993716       0.000000000
    B           0.610615620       0.052304969       0.000000000
    B           0.614758179       0.217648465       0.000000000
    N           0.615293727       0.380875584       0.000000000
    B           0.584378097       0.536207566       0.000000000
    B           0.605912468       0.718983843       0.000000000
    B           0.608777004       0.886267663       0.000000000
    B           0.777305812       0.050941668       0.000000000
    B           0.779407520       0.216772138       0.000000000
    B           0.778463767       0.381368765       0.000000000
    B           0.767381400       0.547455799       0.000000000
    B           0.766849582       0.710578023       0.000000000
    B           0.774831263       0.883431593       0.000000000
    B           0.944081287       0.052086706       0.000000000
    B           0.945257938       0.218901463       0.000000000
    B           0.943869824       0.385576060       0.000000000
    B           0.939593467       0.551969766       0.000000000
    B           0.937988302       0.716803910       0.000000000
    B           0.940484064       0.883660713       0.000000000
    N           0.055864157       0.109655532       0.000000000
    N           0.055988379       0.275940036       0.000000000
    N           0.053833519       0.442638281       0.000000000
    N           0.050689123       0.608976187       0.000000000
    N           0.050560153       0.774984894       0.000000000
    N           0.053595721       0.942724435       0.000000000
    N           0.225955885       0.115173795       0.000000000
    N           0.224227389       0.278959984       0.000000000
    N           0.219905319       0.444453016       0.000000000
    N           0.217747366       0.610961659       0.000000000
    N           0.218521093       0.777647378       0.000000000
    N           0.221132121       0.945535889       0.000000000
    N           0.392041994       0.115893129       0.000000000
    N           0.401103921       0.291099418       0.000000000
    N           0.386564444       0.448080184       0.000000000
    N           0.383330809       0.612753972       0.000000000
    N           0.385210466       0.778439724       0.000000000
    N           0.387218473       0.945459395       0.000000000
    N           0.555658134       0.108583207       0.000000000
    N           0.563959869       0.277996020       0.000000000
    N           0.548095428       0.609658108       0.000000000
    N           0.551688684       0.776233034       0.000000000
    N           0.553542334       0.942355277       0.000000000
    N           0.721935309       0.106624193       0.000000000
    N           0.724102470       0.271981278       0.000000000
    N           0.718164547       0.432240122       0.000000000
    N           0.705206487       0.595236803       0.000000000
    N           0.717187285       0.771986097       0.000000000
    N           0.720293355       0.940212338       0.000000000
    N           0.888608532       0.107593389       0.000000000
    N           0.889577897       0.274274275       0.000000000
    N           0.887529172       0.440489251       0.000000000
    N           0.880226192       0.604102720       0.000000000
    N           0.881046092       0.770280155       0.000000000
    N           0.886485011       0.940295115       0.000000000

K_POINTS automatic
    1  1  1    0  0  0

OCCUPATIONS
    1.0000  1.0000  1.0000  1.0000  1.0000  1.0000  1.0000  1.0000
    1.0000  1.0000  1.0000  1.0000  1.0000  1.0000  1.0000  1.0000
    1.0000  1.0000  1.0000  1.0000  1.0000  1.0000  1.0000  1.0000
    1.0000  1.0000  1.0000  1.0000  1.0000  1.0000  1.0000  1.0000
    1.0000  1.0000  1.0000  1.0000  1.0000  1.0000  1.0000  1.0000
    1.0000  1.0000  1.0000  1.0000  1.0000  1.0000  1.0000  1.0000
    1.0000  1.0000  1.0000  1.0000  1.0000  1.0000  1.0000  1.0000
    1.0000  1.0000  1.0000  1.0000  1.0000  1.0000  1.0000  1.0000
    1.0000  1.0000  1.0000  1.0000  1.0000  1.0000  1.0000  1.0000
    1.0000  1.0000  1.0000  1.0000  1.0000  1.0000  1.0000  1.0000
    1.0000  1.0000  1.0000  1.0000  1.0000  1.0000  1.0000  1.0000
    1.0000  1.0000  1.0000  1.0000  1.0000  1.0000  1.0000  1.0000
    1.0000  1.0000  1.0000  1.0000  1.0000  1.0000  1.0000  1.0000
    1.0000  1.0000  1.0000  1.0000  1.0000  1.0000  1.0000  1.0000
    1.0000  1.0000  1.0000  1.0000  1.0000  1.0000  1.0000  1.0000
    1.0000  1.0000  1.0000  1.0000  1.0000  1.0000  1.0000  1.0000
    1.0000  1.0000  1.0000  1.0000  1.0000  1.0000  1.0000  1.0000
    1.0000  1.0000  1.0000  1.0000  1.0000  1.0000  0.0000  1.0000
    0.0000  0.0000  0.0000  0.0000  0.0000  0.0000  0.0000
    1.0000  1.0000  1.0000  1.0000  1.0000  1.0000  1.0000  1.0000
    1.0000  1.0000  1.0000  1.0000  1.0000  1.0000  1.0000  1.0000
    1.0000  1.0000  1.0000  1.0000  1.0000  1.0000  1.0000  1.0000
    1.0000  1.0000  1.0000  1.0000  1.0000  1.0000  1.0000  1.0000
    1.0000  1.0000  1.0000  1.0000  1.0000  1.0000  1.0000  1.0000
    1.0000  1.0000  1.0000  1.0000  1.0000  1.0000  1.0000  1.0000
    1.0000  1.0000  1.0000  1.0000  1.0000  1.0000  1.0000  1.0000
    1.0000  1.0000  1.0000  1.0000  1.0000  1.0000  1.0000  1.0000
    1.0000  1.0000  1.0000  1.0000  1.0000  1.0000  1.0000  1.0000
    1.0000  1.0000  1.0000  1.0000  1.0000  1.0000  1.0000  1.0000
    1.0000  1.0000  1.0000  1.0000  1.0000  1.0000  1.0000  1.0000
    1.0000  1.0000  1.0000  1.0000  1.0000  1.0000  1.0000  1.0000
    1.0000  1.0000  1.0000  1.0000  1.0000  1.0000  1.0000  1.0000
    1.0000  1.0000  1.0000  1.0000  1.0000  1.0000  1.0000  1.0000
    1.0000  1.0000  1.0000  1.0000  1.0000  1.0000  1.0000  1.0000
    1.0000  1.0000  1.0000  1.0000  1.0000  1.0000  1.0000  1.0000
    1.0000  1.0000  1.0000  1.0000  1.0000  1.0000  1.0000  1.0000
    1.0000  1.0000  1.0000  1.0000  1.0000  1.0000  0.0000  0.0000
    0.0000  0.0000  0.0000  0.0000  0.0000  0.0000  0.0000

