&control
    calculation = 'scf'
    wf_collect = .true.
    prefix = 'BN'
/

&system
    ibrav = 0
    nat = 71
    ntyp = 2
    nspin = 2
    ecutwfc = 55
    starting_magnetization(1:2) = 0.5, 0.5
    occupations = 'from_input'
    nbnd = 151
/

&electrons
    mixing_beta = 0.7
    conv_thr = 1e-06
    scf_must_converge = .false.
    electron_maxstep = 60
/

&ions
/

ATOMIC_SPECIES
    B       10.8110  B_ONCV_PBE-1.0.upf
    N       14.0067  N_ONCV_PBE-1.0.upf

CELL_PARAMETERS angstrom
        15.043730000       0.000000000       0.000000000
        -7.521865000      13.028252348       0.000000000
         0.000000000       0.000000000      20.000000000

ATOMIC_POSITIONS crystal
    B           0.112649049       0.055866684       0.000000000
    B           0.113200605       0.221522633       0.000000000
    B           0.110220766       0.387518717       0.000000000
    B           0.107083577       0.554172504       0.000000000
    B           0.106804527       0.720783257       0.000000000
    B           0.108635608       0.887502769       0.000000000
    B           0.279155718       0.058238671       0.000000000
    B           0.286029443       0.229760978       0.000000000
    B           0.277826820       0.390860364       0.000000000
    B           0.273069913       0.555827939       0.000000000
    B           0.273843470       0.722328340       0.000000000
    B           0.275382865       0.889317596       0.000000000
    B           0.444075859       0.056588231       0.000000000
    B           0.447529657       0.228851152       0.000000000
    B           0.462280118       0.414345838       0.000000000
    B           0.437785965       0.558367811       0.000000000
    B           0.440274197       0.723030008       0.000000000
    B           0.442033921       0.889085625       0.000000000
    B           0.610712074       0.051915812       0.000000000
    B           0.615378594       0.216939860       0.000000000
    N           0.616751108       0.379383808       0.000000000
    B           0.581960013       0.534076104       0.000000000
    B           0.605309925       0.718378496       0.000000000
    B           0.608658364       0.885926513       0.000000000
    B           0.777439297       0.050546290       0.000000000
    B           0.779937171       0.216253490       0.000000000
    B           0.779130435       0.380728791       0.000000000
    B           0.767294307       0.548693127       0.000000000
    B           0.766512476       0.710323094       0.000000000
    B           0.774671878       0.883003817       0.000000000
    B           0.944211335       0.051978005       0.000000000
    B           0.945633355       0.218754051       0.000000000
    B           0.944251077       0.385493643       0.000000000
    B           0.939503883       0.552074961       0.000000000
    B           0.937865382       0.716996240       0.000000000
    B           0.940432393       0.883658597       0.000000000
    N           0.055950546       0.109697490       0.000000000
    N           0.056146092       0.275966706       0.000000000
    N           0.053885005       0.442685950       0.000000000
    N           0.050335078       0.608960038       0.000000000
    N           0.050393510       0.775015569       0.000000000
    N           0.053583495       0.942771307       0.000000000
    N           0.226043829       0.115285730       0.000000000
    N           0.224394420       0.279135523       0.000000000
    N           0.219919603       0.444734505       0.000000000
    N           0.217400757       0.611216597       0.000000000
    N           0.218304567       0.777830531       0.000000000
    N           0.221080224       0.945656743       0.000000000
    N           0.392222105       0.116199416       0.000000000
    N           0.401204206       0.291032623       0.000000000
    N           0.386601385       0.448746417       0.000000000
    N           0.382825069       0.613223966       0.000000000
    N           0.384954860       0.778791242       0.000000000
    N           0.387213269       0.945767028       0.000000000
    N           0.555832899       0.108512244       0.000000000
    N           0.565058030       0.278602795       0.000000000
    N           0.547422745       0.609637114       0.000000000
    N           0.551389144       0.776199365       0.000000000
    N           0.553511890       0.942293090       0.000000000
    N           0.722042898       0.106416482       0.000000000
    N           0.724399116       0.271671075       0.000000000
    N           0.717518770       0.431147310       0.000000000
    N           0.705312884       0.595213215       0.000000000
    N           0.717028528       0.771852042       0.000000000
    N           0.720247193       0.940031248       0.000000000
    N           0.888671153       0.107520544       0.000000000
    N           0.889799049       0.274179924       0.000000000
    N           0.887563054       0.440306474       0.000000000
    N           0.879874153       0.603916459       0.000000000
    N           0.880962291       0.770247502       0.000000000
    N           0.886472997       0.940235583       0.000000000

K_POINTS automatic
    1  1  1    0  0  0

OCCUPATIONS
    1.0000  1.0000  1.0000  1.0000  1.0000  1.0000  1.0000  1.0000
    1.0000  1.0000  1.0000  1.0000  1.0000  1.0000  1.0000  1.0000
    1.0000  1.0000  1.0000  1.0000  1.0000  1.0000  1.0000  1.0000
    1.0000  1.0000  1.0000  1.0000  1.0000  1.0000  1.0000  1.0000
    1.0000  1.0000  1.0000  1.0000  1.0000  1.0000  1.0000  1.0000
    1.0000  1.0000  1.0000  1.0000  1.0000  1.0000  1.0000  1.0000
    1.0000  1.0000  1.0000  1.0000  1.0000  1.0000  1.0000  1.0000
    1.0000  1.0000  1.0000  1.0000  1.0000  1.0000  1.0000  1.0000
    1.0000  1.0000  1.0000  1.0000  1.0000  1.0000  1.0000  1.0000
    1.0000  1.0000  1.0000  1.0000  1.0000  1.0000  1.0000  1.0000
    1.0000  1.0000  1.0000  1.0000  1.0000  1.0000  1.0000  1.0000
    1.0000  1.0000  1.0000  1.0000  1.0000  1.0000  1.0000  1.0000
    1.0000  1.0000  1.0000  1.0000  1.0000  1.0000  1.0000  1.0000
    1.0000  1.0000  1.0000  1.0000  1.0000  1.0000  1.0000  1.0000
    1.0000  1.0000  1.0000  1.0000  1.0000  1.0000  1.0000  1.0000
    1.0000  1.0000  1.0000  1.0000  1.0000  1.0000  1.0000  1.0000
    1.0000  1.0000  1.0000  1.0000  1.0000  1.0000  1.0000  1.0000
    1.0000  1.0000  1.0000  1.0000  1.0000  1.0000  0.0000  1.0000
    0.0000  0.0000  0.0000  0.0000  0.0000  0.0000  0.0000
    1.0000  1.0000  1.0000  1.0000  1.0000  1.0000  1.0000  1.0000
    1.0000  1.0000  1.0000  1.0000  1.0000  1.0000  1.0000  1.0000
    1.0000  1.0000  1.0000  1.0000  1.0000  1.0000  1.0000  1.0000
    1.0000  1.0000  1.0000  1.0000  1.0000  1.0000  1.0000  1.0000
    1.0000  1.0000  1.0000  1.0000  1.0000  1.0000  1.0000  1.0000
    1.0000  1.0000  1.0000  1.0000  1.0000  1.0000  1.0000  1.0000
    1.0000  1.0000  1.0000  1.0000  1.0000  1.0000  1.0000  1.0000
    1.0000  1.0000  1.0000  1.0000  1.0000  1.0000  1.0000  1.0000
    1.0000  1.0000  1.0000  1.0000  1.0000  1.0000  1.0000  1.0000
    1.0000  1.0000  1.0000  1.0000  1.0000  1.0000  1.0000  1.0000
    1.0000  1.0000  1.0000  1.0000  1.0000  1.0000  1.0000  1.0000
    1.0000  1.0000  1.0000  1.0000  1.0000  1.0000  1.0000  1.0000
    1.0000  1.0000  1.0000  1.0000  1.0000  1.0000  1.0000  1.0000
    1.0000  1.0000  1.0000  1.0000  1.0000  1.0000  1.0000  1.0000
    1.0000  1.0000  1.0000  1.0000  1.0000  1.0000  1.0000  1.0000
    1.0000  1.0000  1.0000  1.0000  1.0000  1.0000  1.0000  1.0000
    1.0000  1.0000  1.0000  1.0000  1.0000  1.0000  1.0000  1.0000
    1.0000  1.0000  1.0000  1.0000  1.0000  1.0000  0.0000  0.0000
    0.0000  0.0000  0.0000  0.0000  0.0000  0.0000  0.0000

