&control
    calculation = 'scf'
    prefix = 'di'
    verbosity = 'high'
    wf_collect = .true.
/

&system
    ibrav = 1
    a = 7.136588
    nat = 63
    ntyp = 2
    ecutwfc = 70
    tot_charge = -1
    nspin = 2
    occupations = 'from_input'
    nbnd = 152
    starting_magnetization(1:2) = 0.5, 0.5
/

&electrons
    mixing_beta = 0.5
/

&ions
/

ATOMIC_SPECIES
    C  12.0111  C_ONCV_PBE-1.0.upf
    N  14.0067  N_ONCV_PBE-1.0.upf

ATOMIC_POSITIONS crystal
    C         0.375779590       0.375779590       0.873574170
    C         0.500264721       0.000436126       0.000436126
    C         0.499980451      -0.000437141       0.499980451
    C         0.000436126       0.500264721       0.000436126
    C        -0.000437141       0.499980451       0.499980451
    C        -0.000122285      -0.000122285      -0.000122285
    C         0.000436126       0.000436126       0.500264721
    C         0.250456870       0.250456870      -0.000898871
    C         0.251401735       0.251401735       0.496370060
    C         0.250149493       0.749135523       0.000844092
    C         0.251100899       0.748625990       0.502113301
    C         0.749135523       0.250149493       0.000844092
    C         0.748625990       0.251100899       0.502113301
    C         0.749508223       0.749508223      -0.000851849
    C         0.499980451       0.499980451      -0.000437141
    C         0.748553990       0.748553990       0.498313749
    C         0.502113301       0.251100899       0.748625990
    C         0.502113301       0.748625990       0.251100899
    C         0.498313749       0.748553990       0.748553990
    C        -0.000898871       0.250456870       0.250456870
    C         0.000844092       0.250149493       0.749135523
    C         0.000844092       0.749135523       0.250149493
    C        -0.000851849       0.749508223       0.749508223
    C         0.251401735       0.496370060       0.251401735
    C         0.251100899       0.502113301       0.748625990
    C         0.250456870      -0.000898871       0.250456870
    C         0.250149493       0.000844092       0.749135523
    C         0.748625990       0.502113301       0.251100899
    C         0.748553990       0.498313749       0.748553990
    C         0.496370060       0.251401735       0.251401735
    C         0.749135523       0.000844092       0.250149493
    C         0.624233291       0.873647713       0.624233291
    C         0.636245950       0.362389738       0.636245950
    C         0.375685132       0.876221737       0.876221737
    C         0.375779590       0.873574170       0.375779590
    C         0.876221737       0.375685132       0.876221737
    C         0.873574170       0.375779590       0.375779590
    C         0.874485288       0.874485288       0.874485288
    C         0.876221737       0.876221737       0.375685132
    C         0.125370014       0.125370014       0.874427518
    C         0.124571171       0.124571171       0.374873213
    C         0.123590889       0.624323174       0.876151354
    C         0.126575360       0.623474196       0.376386004
    C         0.624323174       0.123590889       0.876151354
    C         0.623474196       0.126575360       0.376386004
    C         0.624323174       0.876151354       0.123590889
    C         0.624233291       0.624233291       0.873647713
    C         0.374873213       0.124571171       0.124571171
    C         0.376386004       0.126575360       0.623474196
    C         0.376386004       0.623474196       0.126575360
    C         0.362389738       0.636245950       0.636245950
    C         0.874427518       0.125370014       0.125370014
    C         0.876151354       0.123590889       0.624323174
    C         0.876151354       0.624323174       0.123590889
    C         0.873647713       0.624233291       0.624233291
    C         0.124571171       0.374873213       0.124571171
    C         0.126575360       0.376386004       0.623474196
    C         0.125370014       0.874427518       0.125370014
    C         0.123590889       0.876151354       0.624323174
    C         0.623474196       0.376386004       0.126575360
    C         0.636245950       0.636245950       0.362389738
    C         0.749508223      -0.000851849       0.749508223
    N         0.367820002       0.367820002       0.367820002

K_POINTS automatic
    3  3  3    0  0  0

OCCUPATIONS
    1.0000  1.0000  1.0000  1.0000  1.0000  1.0000  1.0000  1.0000
    1.0000  1.0000  1.0000  1.0000  1.0000  1.0000  1.0000  1.0000
    1.0000  1.0000  1.0000  1.0000  1.0000  1.0000  1.0000  1.0000
    1.0000  1.0000  1.0000  1.0000  1.0000  1.0000  1.0000  1.0000
    1.0000  1.0000  1.0000  1.0000  1.0000  1.0000  1.0000  1.0000
    1.0000  1.0000  1.0000  1.0000  1.0000  1.0000  1.0000  1.0000
    1.0000  1.0000  1.0000  1.0000  1.0000  1.0000  1.0000  1.0000
    1.0000  1.0000  1.0000  1.0000  1.0000  1.0000  1.0000  1.0000
    1.0000  1.0000  1.0000  1.0000  1.0000  1.0000  1.0000  1.0000
    1.0000  1.0000  1.0000  1.0000  1.0000  1.0000  1.0000  1.0000
    1.0000  1.0000  1.0000  1.0000  1.0000  1.0000  1.0000  1.0000
    1.0000  1.0000  1.0000  1.0000  1.0000  1.0000  1.0000  1.0000
    1.0000  1.0000  1.0000  1.0000  1.0000  1.0000  1.0000  1.0000
    1.0000  1.0000  1.0000  1.0000  1.0000  1.0000  1.0000  1.0000
    1.0000  1.0000  1.0000  1.0000  1.0000  1.0000  1.0000  1.0000
    1.0000  1.0000  1.0000  1.0000  1.0000  1.0000  1.0000  1.0000
    0.0000  0.0000  0.0000  0.0000  0.0000  0.0000  0.0000  0.0000
    0.0000  0.0000  0.0000  0.0000  0.0000  0.0000  0.0000  0.0000
    0.0000  0.0000  0.0000  0.0000  0.0000  0.0000  0.0000  0.0000
    1.0000  1.0000  1.0000  1.0000  1.0000  1.0000  1.0000  1.0000
    1.0000  1.0000  1.0000  1.0000  1.0000  1.0000  1.0000  1.0000
    1.0000  1.0000  1.0000  1.0000  1.0000  1.0000  1.0000  1.0000
    1.0000  1.0000  1.0000  1.0000  1.0000  1.0000  1.0000  1.0000
    1.0000  1.0000  1.0000  1.0000  1.0000  1.0000  1.0000  1.0000
    1.0000  1.0000  1.0000  1.0000  1.0000  1.0000  1.0000  1.0000
    1.0000  1.0000  1.0000  1.0000  1.0000  1.0000  1.0000  1.0000
    1.0000  1.0000  1.0000  1.0000  1.0000  1.0000  1.0000  1.0000
    1.0000  1.0000  1.0000  1.0000  1.0000  1.0000  1.0000  1.0000
    1.0000  1.0000  1.0000  1.0000  1.0000  1.0000  1.0000  1.0000
    1.0000  1.0000  1.0000  1.0000  1.0000  1.0000  1.0000  1.0000
    1.0000  1.0000  1.0000  1.0000  1.0000  1.0000  1.0000  1.0000
    1.0000  1.0000  1.0000  1.0000  1.0000  1.0000  1.0000  1.0000
    1.0000  1.0000  1.0000  1.0000  1.0000  1.0000  1.0000  1.0000
    1.0000  1.0000  1.0000  1.0000  1.0000  1.0000  1.0000  1.0000
    1.0000  1.0000  1.0000  1.0000  1.0000  0.0000  1.0000  0.0000
    0.0000  0.0000  0.0000  0.0000  0.0000  0.0000  0.0000  0.0000
    0.0000  0.0000  0.0000  0.0000  0.0000  0.0000  0.0000  0.0000
    0.0000  0.0000  0.0000  0.0000  0.0000  0.0000  0.0000  0.0000

