&control
    calculation = 'scf'
    wf_collect = .true.
    prefix = 'BN'
/

&system
    ibrav = 0
    nat = 71
    ntyp = 2
    nspin = 2
    ecutwfc = 55
    starting_magnetization(1:2) = 0.5, 0.5
    occupations = 'from_input'
    nbnd = 151
/

&electrons
    mixing_beta = 0.7
    conv_thr = 1e-06
    scf_must_converge = .false.
    electron_maxstep = 60
/

&ions
/

ATOMIC_SPECIES
    B       10.8110  B_ONCV_PBE-1.0.upf
    N       14.0067  N_ONCV_PBE-1.0.upf

CELL_PARAMETERS angstrom
        15.043730000       0.000000000       0.000000000
        -7.521865000      13.028252348       0.000000000
         0.000000000       0.000000000      20.000000000

ATOMIC_POSITIONS crystal
    B           0.112524672       0.055639201       0.000000000
    B           0.112235249       0.221131864       0.000000000
    B           0.109575328       0.387310068       0.000000000
    B           0.107285306       0.553968580       0.000000000
    B           0.107132048       0.720497657       0.000000000
    B           0.108849813       0.887325122       0.000000000
    B           0.279573039       0.058061176       0.000000000
    B           0.285329119       0.228948240       0.000000000
    B           0.276509562       0.389564872       0.000000000
    B           0.273433605       0.555270146       0.000000000
    B           0.274197259       0.721969186       0.000000000
    B           0.275714616       0.889086983       0.000000000
    B           0.444333427       0.056505143       0.000000000
    B           0.450122912       0.228727192       0.000000000
    B           0.457606161       0.409103088       0.000000000
    B           0.438608281       0.557552002       0.000000000
    B           0.440907561       0.722745857       0.000000000
    B           0.442194923       0.888891594       0.000000000
    B           0.610508450       0.052737366       0.000000000
    B           0.614068829       0.218435805       0.000000000
    N           0.613674415       0.382533113       0.000000000
    B           0.587064857       0.538575856       0.000000000
    B           0.606581961       0.719656452       0.000000000
    B           0.608908826       0.886646720       0.000000000
    B           0.777157495       0.051380977       0.000000000
    B           0.778819020       0.217348414       0.000000000
    B           0.777723025       0.382079847       0.000000000
    B           0.767478170       0.546080990       0.000000000
    B           0.767224143       0.710861276       0.000000000
    B           0.775008356       0.883906899       0.000000000
    B           0.943936790       0.052207486       0.000000000
    B           0.944840808       0.219065254       0.000000000
    B           0.943446208       0.385667633       0.000000000
    B           0.939693005       0.551852883       0.000000000
    B           0.938124879       0.716590209       0.000000000
    B           0.940541477       0.883663063       0.000000000
    N           0.055768169       0.109608911       0.000000000
    N           0.055813142       0.275910404       0.000000000
    N           0.053776312       0.442585315       0.000000000
    N           0.051082506       0.608994129       0.000000000
    N           0.050745313       0.774950811       0.000000000
    N           0.053609306       0.942672354       0.000000000
    N           0.225858169       0.115049423       0.000000000
    N           0.224041798       0.278764940       0.000000000
    N           0.219889447       0.444140251       0.000000000
    N           0.218132486       0.610678395       0.000000000
    N           0.218761679       0.777443874       0.000000000
    N           0.221189783       0.945401608       0.000000000
    N           0.391841872       0.115552810       0.000000000
    N           0.400992493       0.291173636       0.000000000
    N           0.386523398       0.447339924       0.000000000
    N           0.383892741       0.612231756       0.000000000
    N           0.385494473       0.778049148       0.000000000
    N           0.387224255       0.945117580       0.000000000
    N           0.555463950       0.108662054       0.000000000
    N           0.562739691       0.277321826       0.000000000
    N           0.548842853       0.609681435       0.000000000
    N           0.552021507       0.776270443       0.000000000
    N           0.553576161       0.942424375       0.000000000
    N           0.721815766       0.106854984       0.000000000
    N           0.723772862       0.272325949       0.000000000
    N           0.718882077       0.433454359       0.000000000
    N           0.705088267       0.595263013       0.000000000
    N           0.717363681       0.772135048       0.000000000
    N           0.720344646       0.940413549       0.000000000
    N           0.888538953       0.107674328       0.000000000
    N           0.889332172       0.274379110       0.000000000
    N           0.887491525       0.440692336       0.000000000
    N           0.880617345       0.604309677       0.000000000
    N           0.881139205       0.770316436       0.000000000
    N           0.886498360       0.940361261       0.000000000

K_POINTS automatic
    1  1  1    0  0  0

OCCUPATIONS
    1.0000  1.0000  1.0000  1.0000  1.0000  1.0000  1.0000  1.0000
    1.0000  1.0000  1.0000  1.0000  1.0000  1.0000  1.0000  1.0000
    1.0000  1.0000  1.0000  1.0000  1.0000  1.0000  1.0000  1.0000
    1.0000  1.0000  1.0000  1.0000  1.0000  1.0000  1.0000  1.0000
    1.0000  1.0000  1.0000  1.0000  1.0000  1.0000  1.0000  1.0000
    1.0000  1.0000  1.0000  1.0000  1.0000  1.0000  1.0000  1.0000
    1.0000  1.0000  1.0000  1.0000  1.0000  1.0000  1.0000  1.0000
    1.0000  1.0000  1.0000  1.0000  1.0000  1.0000  1.0000  1.0000
    1.0000  1.0000  1.0000  1.0000  1.0000  1.0000  1.0000  1.0000
    1.0000  1.0000  1.0000  1.0000  1.0000  1.0000  1.0000  1.0000
    1.0000  1.0000  1.0000  1.0000  1.0000  1.0000  1.0000  1.0000
    1.0000  1.0000  1.0000  1.0000  1.0000  1.0000  1.0000  1.0000
    1.0000  1.0000  1.0000  1.0000  1.0000  1.0000  1.0000  1.0000
    1.0000  1.0000  1.0000  1.0000  1.0000  1.0000  1.0000  1.0000
    1.0000  1.0000  1.0000  1.0000  1.0000  1.0000  1.0000  1.0000
    1.0000  1.0000  1.0000  1.0000  1.0000  1.0000  1.0000  1.0000
    1.0000  1.0000  1.0000  1.0000  1.0000  1.0000  1.0000  1.0000
    1.0000  1.0000  1.0000  1.0000  1.0000  1.0000  0.0000  1.0000
    0.0000  0.0000  0.0000  0.0000  0.0000  0.0000  0.0000
    1.0000  1.0000  1.0000  1.0000  1.0000  1.0000  1.0000  1.0000
    1.0000  1.0000  1.0000  1.0000  1.0000  1.0000  1.0000  1.0000
    1.0000  1.0000  1.0000  1.0000  1.0000  1.0000  1.0000  1.0000
    1.0000  1.0000  1.0000  1.0000  1.0000  1.0000  1.0000  1.0000
    1.0000  1.0000  1.0000  1.0000  1.0000  1.0000  1.0000  1.0000
    1.0000  1.0000  1.0000  1.0000  1.0000  1.0000  1.0000  1.0000
    1.0000  1.0000  1.0000  1.0000  1.0000  1.0000  1.0000  1.0000
    1.0000  1.0000  1.0000  1.0000  1.0000  1.0000  1.0000  1.0000
    1.0000  1.0000  1.0000  1.0000  1.0000  1.0000  1.0000  1.0000
    1.0000  1.0000  1.0000  1.0000  1.0000  1.0000  1.0000  1.0000
    1.0000  1.0000  1.0000  1.0000  1.0000  1.0000  1.0000  1.0000
    1.0000  1.0000  1.0000  1.0000  1.0000  1.0000  1.0000  1.0000
    1.0000  1.0000  1.0000  1.0000  1.0000  1.0000  1.0000  1.0000
    1.0000  1.0000  1.0000  1.0000  1.0000  1.0000  1.0000  1.0000
    1.0000  1.0000  1.0000  1.0000  1.0000  1.0000  1.0000  1.0000
    1.0000  1.0000  1.0000  1.0000  1.0000  1.0000  1.0000  1.0000
    1.0000  1.0000  1.0000  1.0000  1.0000  1.0000  1.0000  1.0000
    1.0000  1.0000  1.0000  1.0000  1.0000  1.0000  0.0000  0.0000
    0.0000  0.0000  0.0000  0.0000  0.0000  0.0000  0.0000

