&control
    calculation = 'scf'
    wf_collect = .true.
    prefix = 'BN'
    outdir = '.'
/

&system
    ibrav = 0
    nat = 71
    ntyp = 2
    nspin = 2
    ecutwfc = 55
    starting_magnetization(1:2) = 0.5, 0.5
    nbnd = 151
    tot_magnetization = 1
/

&electrons
    mixing_beta = 0.7
    conv_thr = 1e-07
/

&ions
/

ATOMIC_SPECIES
    B  10.811  B_ONCV_PBE-1.0.upf
    N  14.0067  N_ONCV_PBE-1.0.upf

CELL_PARAMETERS angstrom
        15.043730000       0.000000000       0.000000000
        -7.521865000      13.028252348       0.000000000
         0.000000000       0.000000000      20.000000000

K_POINTS automatic
    1  1  1    0  0  0

ATOMIC_POSITIONS crystal
B    0.1125443104 0.0556751194 0.0000000000
B    0.1123876736 0.2211935644 0.0000000000
B    0.1096772392 0.3873430125 0.0000000000
B    0.1072534541 0.5540007786 0.0000000000
B    0.1070803341 0.7205427518 0.0000000000
B    0.1088159911 0.8873531716 0.0000000000
B    0.2795071463 0.0580892015 0.0000000000
B    0.2854396965 0.2290765671 0.0000000000
B    0.2767175500 0.3897694234 0.0000000000
B    0.2733761799 0.5553582187 0.0000000000
B    0.2741413977 0.7220258945 0.0000000000
B    0.2756622342 0.8891233956 0.0000000000
B    0.4442927584 0.0565182621 0.0000000000
B    0.4497134507 0.2287467646 0.0000000000
B    0.4583441542 0.4099308906 0.0000000000
B    0.4384784416 0.5576808139 0.0000000000
B    0.4408075562 0.7227907229 0.0000000000
B    0.4421695016 0.8889222304 0.0000000000
B    0.6105406011 0.0526076469 0.0000000000
B    0.6142756340 0.2181996032 0.0000000000
N    0.6141602086 0.3820358543 0.0000000000
B    0.5862588290 0.5378653689 0.0000000000
B    0.6063811132 0.7194546694 0.0000000000
B    0.6088692794 0.8865330030 0.0000000000
B    0.7772019901 0.0512491843 0.0000000000
B    0.7789955701 0.2171755312 0.0000000000
B    0.7779452476 0.3818665224 0.0000000000
B    0.7674491390 0.5464934327 0.0000000000
B    0.7671117745 0.7107763000 0.0000000000
B    0.7749552279 0.8837643070 0.0000000000
B    0.9439801392 0.0521712521 0.0000000000
B    0.9449659470 0.2190161167 0.0000000000
B    0.9435732927 0.3856401609 0.0000000000
B    0.9396631436 0.5518879479 0.0000000000
B    0.9380839057 0.7166543191 0.0000000000
B    0.9405242532 0.8836623579 0.0000000000
N    0.0557969654 0.1096228972 0.0000000000
N    0.0558657131 0.2759192937 0.0000000000
N    0.0537934741 0.4426012048 0.0000000000
N    0.0509644911 0.6089887462 0.0000000000
N    0.0506897652 0.7749610359 0.0000000000
N    0.0536052305 0.9426879781 0.0000000000
N    0.2258874838 0.1150867346 0.0000000000
N    0.2240974752 0.2788234531 0.0000000000
N    0.2198942084 0.4442340805 0.0000000000
N    0.2180169498 0.6107633742 0.0000000000
N    0.2186895033 0.7775049250 0.0000000000
N    0.2211724842 0.9454418924 0.0000000000
N    0.3919019087 0.1156549057 0.0000000000
N    0.4010259214 0.2911513708 0.0000000000
N    0.3865357118 0.4475620018 0.0000000000
N    0.3837241612 0.6123884208 0.0000000000
N    0.3854092709 0.7781663208 0.0000000000
N    0.3872225204 0.9452201245 0.0000000000
N    0.5555222051 0.1086383997 0.0000000000
N    0.5631057445 0.2775240842 0.0000000000
N    0.5486186255 0.6096744369 0.0000000000
N    0.5519216602 0.7762592202 0.0000000000
N    0.5535660129 0.9424036457 0.0000000000
N    0.7218516289 0.1067857469 0.0000000000
N    0.7238717443 0.2722225478 0.0000000000
N    0.7186668180 0.4330900880 0.0000000000
N    0.7051237328 0.5952551501 0.0000000000
N    0.7173107621 0.7720903628 0.0000000000
N    0.7203292587 0.9403531857 0.0000000000
N    0.8885598267 0.1076500463 0.0000000000
N    0.8894058894 0.2743476596 0.0000000000
N    0.8875028191 0.4406314105 0.0000000000
N    0.8804999989 0.6042475899 0.0000000000
N    0.8811112712 0.7703055517 0.0000000000
N    0.8864943553 0.9403414170 0.0000000000
