&control
    calculation = 'scf'
    wf_collect = .true.
    prefix = 'BN'
/

&system
    ibrav = 0
    nat = 71
    ntyp = 2
    nspin = 2
    ecutwfc = 55
    starting_magnetization(1:2) = 0.5, 0.5
    occupations = 'from_input'
    nbnd = 151
/

&electrons
    mixing_beta = 0.7
    conv_thr = 1e-06
    scf_must_converge = .false.
    electron_maxstep = 60
/

&ions
/

ATOMIC_SPECIES
    B       10.8110  B_ONCV_PBE-1.0.upf
    N       14.0067  N_ONCV_PBE-1.0.upf

CELL_PARAMETERS angstrom
        15.043730000       0.000000000       0.000000000
        -7.521865000      13.028252348       0.000000000
         0.000000000       0.000000000      20.000000000

ATOMIC_POSITIONS crystal
    B           0.112557403       0.055699065       0.000000000
    B           0.112489290       0.221234698       0.000000000
    B           0.109745180       0.387364975       0.000000000
    B           0.107232220       0.554022244       0.000000000
    B           0.107045858       0.720572815       0.000000000
    B           0.108793443       0.887371871       0.000000000
    B           0.279463218       0.058107885       0.000000000
    B           0.285513415       0.229162118       0.000000000
    B           0.276856209       0.389905791       0.000000000
    B           0.273337897       0.555416934       0.000000000
    B           0.274104157       0.722063700       0.000000000
    B           0.275627313       0.889147671       0.000000000
    B           0.444265646       0.056527008       0.000000000
    B           0.449440477       0.228759813       0.000000000
    B           0.458836150       0.410482759       0.000000000
    B           0.438391882       0.557766688       0.000000000
    B           0.440740886       0.722820634       0.000000000
    B           0.442152554       0.888942655       0.000000000
    B           0.610562035       0.052521168       0.000000000
    B           0.614413504       0.218042135       0.000000000
    N           0.614484071       0.381704348       0.000000000
    B           0.585721477       0.537391711       0.000000000
    B           0.606247215       0.719320148       0.000000000
    B           0.608842915       0.886457192       0.000000000
    B           0.777231654       0.051161323       0.000000000
    B           0.779113270       0.217060276       0.000000000
    B           0.778093396       0.381724306       0.000000000
    B           0.767429785       0.546768394       0.000000000
    B           0.767036862       0.710719649       0.000000000
    B           0.774919809       0.883669246       0.000000000
    B           0.944009039       0.052147096       0.000000000
    B           0.945049373       0.218983359       0.000000000
    B           0.943658016       0.385621846       0.000000000
    B           0.939643236       0.551911325       0.000000000
    B           0.938056590       0.716697059       0.000000000
    B           0.940512771       0.883661888       0.000000000
    N           0.055816163       0.109632221       0.000000000
    N           0.055900761       0.275925220       0.000000000
    N           0.053804916       0.442611798       0.000000000
    N           0.050885815       0.608985158       0.000000000
    N           0.050652733       0.774967852       0.000000000
    N           0.053602514       0.942698394       0.000000000
    N           0.225907027       0.115111609       0.000000000
    N           0.224134593       0.278862462       0.000000000
    N           0.219897383       0.444296634       0.000000000
    N           0.217939926       0.610820027       0.000000000
    N           0.218641386       0.777545626       0.000000000
    N           0.221160952       0.945468749       0.000000000
    N           0.391941933       0.115722970       0.000000000
    N           0.401048207       0.291136527       0.000000000
    N           0.386543921       0.447710054       0.000000000
    N           0.383611775       0.612492864       0.000000000
    N           0.385352470       0.778244436       0.000000000
    N           0.387221364       0.945288488       0.000000000
    N           0.555561042       0.108622630       0.000000000
    N           0.563349780       0.277658923       0.000000000
    N           0.548469140       0.609669772       0.000000000
    N           0.551855096       0.776251738       0.000000000
    N           0.553559247       0.942389826       0.000000000
    N           0.721875537       0.106739589       0.000000000
    N           0.723937666       0.272153614       0.000000000
    N           0.718523312       0.432847241       0.000000000
    N           0.705147377       0.595249908       0.000000000
    N           0.717275483       0.772060573       0.000000000
    N           0.720319000       0.940312943       0.000000000
    N           0.888573742       0.107633858       0.000000000
    N           0.889455034       0.274326693       0.000000000
    N           0.887510348       0.440590793       0.000000000
    N           0.880421768       0.604206199       0.000000000
    N           0.881092649       0.770298296       0.000000000
    N           0.886491686       0.940328188       0.000000000

K_POINTS automatic
    1  1  1    0  0  0

OCCUPATIONS
    1.0000  1.0000  1.0000  1.0000  1.0000  1.0000  1.0000  1.0000
    1.0000  1.0000  1.0000  1.0000  1.0000  1.0000  1.0000  1.0000
    1.0000  1.0000  1.0000  1.0000  1.0000  1.0000  1.0000  1.0000
    1.0000  1.0000  1.0000  1.0000  1.0000  1.0000  1.0000  1.0000
    1.0000  1.0000  1.0000  1.0000  1.0000  1.0000  1.0000  1.0000
    1.0000  1.0000  1.0000  1.0000  1.0000  1.0000  1.0000  1.0000
    1.0000  1.0000  1.0000  1.0000  1.0000  1.0000  1.0000  1.0000
    1.0000  1.0000  1.0000  1.0000  1.0000  1.0000  1.0000  1.0000
    1.0000  1.0000  1.0000  1.0000  1.0000  1.0000  1.0000  1.0000
    1.0000  1.0000  1.0000  1.0000  1.0000  1.0000  1.0000  1.0000
    1.0000  1.0000  1.0000  1.0000  1.0000  1.0000  1.0000  1.0000
    1.0000  1.0000  1.0000  1.0000  1.0000  1.0000  1.0000  1.0000
    1.0000  1.0000  1.0000  1.0000  1.0000  1.0000  1.0000  1.0000
    1.0000  1.0000  1.0000  1.0000  1.0000  1.0000  1.0000  1.0000
    1.0000  1.0000  1.0000  1.0000  1.0000  1.0000  1.0000  1.0000
    1.0000  1.0000  1.0000  1.0000  1.0000  1.0000  1.0000  1.0000
    1.0000  1.0000  1.0000  1.0000  1.0000  1.0000  1.0000  1.0000
    1.0000  1.0000  1.0000  1.0000  1.0000  1.0000  0.0000  1.0000
    0.0000  0.0000  0.0000  0.0000  0.0000  0.0000  0.0000
    1.0000  1.0000  1.0000  1.0000  1.0000  1.0000  1.0000  1.0000
    1.0000  1.0000  1.0000  1.0000  1.0000  1.0000  1.0000  1.0000
    1.0000  1.0000  1.0000  1.0000  1.0000  1.0000  1.0000  1.0000
    1.0000  1.0000  1.0000  1.0000  1.0000  1.0000  1.0000  1.0000
    1.0000  1.0000  1.0000  1.0000  1.0000  1.0000  1.0000  1.0000
    1.0000  1.0000  1.0000  1.0000  1.0000  1.0000  1.0000  1.0000
    1.0000  1.0000  1.0000  1.0000  1.0000  1.0000  1.0000  1.0000
    1.0000  1.0000  1.0000  1.0000  1.0000  1.0000  1.0000  1.0000
    1.0000  1.0000  1.0000  1.0000  1.0000  1.0000  1.0000  1.0000
    1.0000  1.0000  1.0000  1.0000  1.0000  1.0000  1.0000  1.0000
    1.0000  1.0000  1.0000  1.0000  1.0000  1.0000  1.0000  1.0000
    1.0000  1.0000  1.0000  1.0000  1.0000  1.0000  1.0000  1.0000
    1.0000  1.0000  1.0000  1.0000  1.0000  1.0000  1.0000  1.0000
    1.0000  1.0000  1.0000  1.0000  1.0000  1.0000  1.0000  1.0000
    1.0000  1.0000  1.0000  1.0000  1.0000  1.0000  1.0000  1.0000
    1.0000  1.0000  1.0000  1.0000  1.0000  1.0000  1.0000  1.0000
    1.0000  1.0000  1.0000  1.0000  1.0000  1.0000  1.0000  1.0000
    1.0000  1.0000  1.0000  1.0000  1.0000  1.0000  0.0000  0.0000
    0.0000  0.0000  0.0000  0.0000  0.0000  0.0000  0.0000

