&control
    calculation = 'scf'
    wf_collect = .true.
    prefix = 'BN'
    outdir = '.'
/

&system
    ibrav = 0
    nat = 71
    ntyp = 2
    nspin = 2
    ecutwfc = 55
    starting_magnetization(1:2) = 0.5, 0.5
    occupations = 'from_input'
    nbnd = 151
/

&electrons
    mixing_beta = 0.7
    conv_thr = 1e-06
    scf_must_converge = .false.
    electron_maxstep = 60
/

&ions
/

ATOMIC_SPECIES
    B  10.811  B_ONCV_PBE-1.0.upf
    N  14.0067  N_ONCV_PBE-1.0.upf

CELL_PARAMETERS angstrom
        15.043730000       0.000000000       0.000000000
        -7.521865000      13.028252348       0.000000000
         0.000000000       0.000000000      20.000000000

K_POINTS automatic
    1  1  1    0  0  0

ATOMIC_POSITIONS crystal
B    0.1126294104 0.0558307658 0.0000000000
B    0.1130481802 0.2214609328 0.0000000000
B    0.1101188544 0.3874857720 0.0000000000
B    0.1071154292 0.5541403056 0.0000000000
B    0.1068562408 0.7207381626 0.0000000000
B    0.1086694298 0.8874747196 0.0000000000
B    0.2792216110 0.0582106456 0.0000000000
B    0.2859188654 0.2296326512 0.0000000000
B    0.2776188316 0.3906558128 0.0000000000
B    0.2731273378 0.5557398668 0.0000000000
B    0.2738993318 0.7222716316 0.0000000000
B    0.2754352464 0.8892811838 0.0000000000
B    0.4441165278 0.0565751118 0.0000000000
B    0.4479391184 0.2288315792 0.0000000000
B    0.4615421250 0.4135180352 0.0000000000
B    0.4379158042 0.5582389988 0.0000000000
B    0.4403742018 0.7229851418 0.0000000000
B    0.4420593422 0.8890549884 0.0000000000
B    0.6106799228 0.0520455308 0.0000000000
B    0.6151717890 0.2171760618 0.0000000000
N    0.6162653142 0.3798810666 0.0000000000
B    0.5827660410 0.5347865912 0.0000000000
B    0.6055107730 0.7185802784 0.0000000000
B    0.6086979108 0.8860402296 0.0000000000
B    0.7773948022 0.0506780826 0.0000000000
B    0.7797606208 0.2164263724 0.0000000000
B    0.7789082122 0.3809421158 0.0000000000
B    0.7673233380 0.5482806844 0.0000000000
B    0.7666248446 0.7104080704 0.0000000000
B    0.7747250064 0.8831464086 0.0000000000
B    0.9441679860 0.0520142388 0.0000000000
B    0.9455082160 0.2188031884 0.0000000000
B    0.9441239928 0.3855211154 0.0000000000
B    0.9395337442 0.5520398958 0.0000000000
B    0.9379063550 0.7169321298 0.0000000000
B    0.9404496170 0.8836593022 0.0000000000
N    0.0559217498 0.1096835038 0.0000000000
N    0.0560935212 0.2759578160 0.0000000000
N    0.0538678432 0.4426700606 0.0000000000
N    0.0504530932 0.6089654210 0.0000000000
N    0.0504490578 0.7750053438 0.0000000000
N    0.0535875700 0.9427556828 0.0000000000
N    0.2260145146 0.1152484182 0.0000000000
N    0.2243387428 0.2790770096 0.0000000000
N    0.2199148414 0.4446406750 0.0000000000
N    0.2175162932 0.6111316174 0.0000000000
N    0.2183767422 0.7777694796 0.0000000000
N    0.2210975230 0.9456164584 0.0000000000
N    0.3921620680 0.1160973204 0.0000000000
N    0.4011707778 0.2910548880 0.0000000000
N    0.3865890716 0.4485243392 0.0000000000
N    0.3829936490 0.6130673016 0.0000000000
N    0.3850400618 0.7786740696 0.0000000000
N    0.3872150038 0.9456644840 0.0000000000
N    0.5557746436 0.1085358980 0.0000000000
N    0.5646919766 0.2784005364 0.0000000000
N    0.5476469730 0.6096441118 0.0000000000
N    0.5514889910 0.7762105878 0.0000000000
N    0.5535220378 0.9423138190 0.0000000000
N    0.7220070348 0.1064857192 0.0000000000
N    0.7243002340 0.2717744762 0.0000000000
N    0.7177340290 0.4315115806 0.0000000000
N    0.7052774182 0.5952210778 0.0000000000
N    0.7170814466 0.7718967272 0.0000000000
N    0.7202625804 0.9400916114 0.0000000000
N    0.8886502794 0.1075448256 0.0000000000
N    0.8897253312 0.2742113748 0.0000000000
N    0.8875517602 0.4403674000 0.0000000000
N    0.8799914994 0.6039785458 0.0000000000
N    0.8809902250 0.7702583864 0.0000000000
N    0.8864770016 0.9402554266 0.0000000000
OCCUPATIONS
    1    1    1    1    1    1    1    1
    1    1    1    1    1    1    1    1
    1    1    1    1    1    1    1    1
    1    1    1    1    1    1    1    1
    1    1    1    1    1    1    1    1
    1    1    1    1    1    1    1    1
    1    1    1    1    1    1    1    1
    1    1    1    1    1    1    1    1
    1    1    1    1    1    1    1    1
    1    1    1    1    1    1    1    1
    1    1    1    1    1    1    1    1
    1    1    1    1    1    1    1    1
    1    1    1    1    1    1    1    1
    1    1    1    1    1    1    1    1
    1    1    1    1    1    1    1    1
    1    1    1    1    1    1    1    1
    1    1    1    1    1    1    1    1
    1    1    1    1    1    1    0    1
    0    0    0    0    0    0    0
    1    1    1    1    1    1    1    1
    1    1    1    1    1    1    1    1
    1    1    1    1    1    1    1    1
    1    1    1    1    1    1    1    1
    1    1    1    1    1    1    1    1
    1    1    1    1    1    1    1    1
    1    1    1    1    1    1    1    1
    1    1    1    1    1    1    1    1
    1    1    1    1    1    1    1    1
    1    1    1    1    1    1    1    1
    1    1    1    1    1    1    1    1
    1    1    1    1    1    1    1    1
    1    1    1    1    1    1    1    1
    1    1    1    1    1    1    1    1
    1    1    1    1    1    1    1    1
    1    1    1    1    1    1    1    1
    1    1    1    1    1    1    1    1
    1    1    1    1    1    1    0    0
    0    0    0    0    0    0    0

