&control
    calculation = 'scf'
    prefix = 'di'
    verbosity = 'high'
    wf_collect = .true.
/

&system
    ibrav = 1
    a = 7.136588
    nat = 63
    ntyp = 2
    ecutwfc = 70
    tot_charge = -1
    nspin = 2
    occupations = 'smearing'
    smearing = 'mv'
    degauss = 0.001
    starting_magnetization(1:2) = 0.2, 0.2
    tot_magnetization = 0
/

&electrons
    mixing_beta = 0.5
/

&ions
/

ATOMIC_SPECIES
    C       12.0111  C_ONCV_PBE-1.0.upf
    N       14.0067  N_ONCV_PBE-1.0.upf

ATOMIC_POSITIONS crystal
    C           0.375773526       0.375773526       0.873590503
    C           0.500234855       0.000401354       0.000401354
    C           0.499990923      -0.000385487       0.499990923
    C           0.000401354       0.500234855       0.000401354
    C          -0.000385487       0.499990923       0.499990923
    C          -0.000120778      -0.000120778      -0.000120778
    C           0.000401354       0.000401354       0.500234855
    C           0.250423755       0.250423755      -0.000945348
    C           0.251293016       0.251293016       0.496143818
    C           0.250185813       0.749120293       0.000866451
    C           0.251316895       0.748504404       0.502045901
    C           0.749120293       0.250185813       0.000866451
    C           0.748504404       0.251316895       0.502045901
    C           0.749528329       0.749528329      -0.000761040
    C           0.499990923       0.499990923      -0.000385487
    C           0.748635961       0.748635961       0.498379582
    C           0.502045901       0.251316895       0.748504404
    C           0.502045901       0.748504404       0.251316895
    C           0.498379582       0.748635961       0.748635961
    C          -0.000945348       0.250423755       0.250423755
    C           0.000866451       0.250185813       0.749120293
    C           0.000866451       0.749120293       0.250185813
    C          -0.000761040       0.749528329       0.749528329
    C           0.251293016       0.496143818       0.251293016
    C           0.251316895       0.502045901       0.748504404
    C           0.250423755      -0.000945348       0.250423755
    C           0.250185813       0.000866451       0.749120293
    C           0.748504404       0.502045901       0.251316895
    C           0.748635961       0.498379582       0.748635961
    C           0.496143818       0.251293016       0.251293016
    C           0.749120293       0.000866451       0.250185813
    C           0.624295839       0.873759911       0.624295839
    C           0.636029415       0.363101933       0.636029415
    C           0.375714752       0.876218948       0.876218948
    C           0.375773526       0.873590503       0.375773526
    C           0.876218948       0.375714752       0.876218948
    C           0.873590503       0.375773526       0.375773526
    C           0.874517079       0.874517079       0.874517079
    C           0.876218948       0.876218948       0.375714752
    C           0.125371935       0.125371935       0.874401733
    C           0.124469170       0.124469170       0.374872205
    C           0.123700526       0.624355573       0.876108028
    C           0.126649305       0.623396659       0.376375166
    C           0.624355573       0.123700526       0.876108028
    C           0.623396659       0.126649305       0.376375166
    C           0.624355573       0.876108028       0.123700526
    C           0.624295839       0.624295839       0.873759911
    C           0.374872205       0.124469170       0.124469170
    C           0.376375166       0.126649305       0.623396659
    C           0.376375166       0.623396659       0.126649305
    C           0.363101933       0.636029415       0.636029415
    C           0.874401733       0.125371935       0.125371935
    C           0.876108028       0.123700526       0.624355573
    C           0.876108028       0.624355573       0.123700526
    C           0.873759911       0.624295839       0.624295839
    C           0.124469170       0.374872205       0.124469170
    C           0.126649305       0.376375166       0.623396659
    C           0.125371935       0.874401733       0.125371935
    C           0.123700526       0.876108028       0.624355573
    C           0.623396659       0.376375166       0.126649305
    C           0.636029415       0.636029415       0.363101933
    C           0.749528329      -0.000761040       0.749528329
    N           0.367381909       0.367381909       0.367381909

K_POINTS automatic
    1  1  1    0  0  0

