&control
    calculation = 'scf'
    wf_collect = .true.
    prefix = 'BN'
    outdir = '.'
/

&system
    ibrav = 0
    nat = 71
    ntyp = 2
    nspin = 2
    ecutwfc = 55
    starting_magnetization(1:2) = 0.5, 0.5
    nbnd = 151
    tot_magnetization = 1
/

&electrons
    mixing_beta = 0.7
    conv_thr = 1e-07
/

&ions
/

ATOMIC_SPECIES
    B  10.811  B_ONCV_PBE-1.0.upf
    N  14.0067  N_ONCV_PBE-1.0.upf

CELL_PARAMETERS angstrom
        15.043730000       0.000000000       0.000000000
        -7.521865000      13.028252348       0.000000000
         0.000000000       0.000000000      20.000000000

K_POINTS automatic
    1  1  1    0  0  0

ATOMIC_POSITIONS crystal
B    0.1125901335 0.0557589290 0.0000000000
B    0.1127433310 0.2213375320 0.0000000000
B    0.1099150320 0.3874198830 0.0000000000
B    0.1071791330 0.5540759085 0.0000000000
B    0.1069596685 0.7206479730 0.0000000000
B    0.1087370735 0.8874186205 0.0000000000
B    0.2793533965 0.0581545945 0.0000000000
B    0.2856977105 0.2293759970 0.0000000000
B    0.2772028555 0.3902467100 0.0000000000
B    0.2732421880 0.5555637215 0.0000000000
B    0.2740110545 0.7221582145 0.0000000000
B    0.2755400100 0.8892083585 0.0000000000
B    0.4441978650 0.0565488735 0.0000000000
B    0.4487580410 0.2287924340 0.0000000000
B    0.4600661385 0.4118624300 0.0000000000
B    0.4381754830 0.5579813750 0.0000000000
B    0.4405742115 0.7228954100 0.0000000000
B    0.4421101850 0.8889937155 0.0000000000
B    0.6106156205 0.0523049690 0.0000000000
B    0.6147581790 0.2176484655 0.0000000000
N    0.6152937270 0.3808755840 0.0000000000
B    0.5843780970 0.5362075655 0.0000000000
B    0.6059124685 0.7189838435 0.0000000000
B    0.6087770040 0.8862676635 0.0000000000
B    0.7773058120 0.0509416680 0.0000000000
B    0.7794075205 0.2167721380 0.0000000000
B    0.7784637670 0.3813687650 0.0000000000
B    0.7673814000 0.5474557990 0.0000000000
B    0.7668495815 0.7105780225 0.0000000000
B    0.7748312625 0.8834315925 0.0000000000
B    0.9440812875 0.0520867065 0.0000000000
B    0.9452579380 0.2189014630 0.0000000000
B    0.9438698235 0.3855760595 0.0000000000
B    0.9395934670 0.5519697660 0.0000000000
B    0.9379883015 0.7168039095 0.0000000000
B    0.9404840645 0.8836607125 0.0000000000
N    0.0558641570 0.1096555315 0.0000000000
N    0.0559883790 0.2759400365 0.0000000000
N    0.0538335190 0.4426382810 0.0000000000
N    0.0506891230 0.6089761865 0.0000000000
N    0.0505601535 0.7749848940 0.0000000000
N    0.0535957210 0.9427244345 0.0000000000
N    0.2259558850 0.1151737950 0.0000000000
N    0.2242273885 0.2789599835 0.0000000000
N    0.2199053185 0.4444530160 0.0000000000
N    0.2177473655 0.6109616590 0.0000000000
N    0.2185210935 0.7776473775 0.0000000000
N    0.2211321205 0.9455358895 0.0000000000
N    0.3920419945 0.1158931290 0.0000000000
N    0.4011039210 0.2910994185 0.0000000000
N    0.3865644440 0.4480801835 0.0000000000
N    0.3833308085 0.6127539720 0.0000000000
N    0.3852104660 0.7784397240 0.0000000000
N    0.3872184730 0.9454593950 0.0000000000
N    0.5556581335 0.1085832065 0.0000000000
N    0.5639598695 0.2779960200 0.0000000000
N    0.5480954280 0.6096581080 0.0000000000
N    0.5516886845 0.7762330335 0.0000000000
N    0.5535423340 0.9423552775 0.0000000000
N    0.7219353090 0.1066241935 0.0000000000
N    0.7241024695 0.2719812785 0.0000000000
N    0.7181645470 0.4322401225 0.0000000000
N    0.7052064865 0.5952368035 0.0000000000
N    0.7171872845 0.7719860975 0.0000000000
N    0.7202933550 0.9402123380 0.0000000000
N    0.8886085320 0.1075933890 0.0000000000
N    0.8895778965 0.2742742755 0.0000000000
N    0.8875291720 0.4404892510 0.0000000000
N    0.8802261915 0.6041027200 0.0000000000
N    0.8810460925 0.7702801550 0.0000000000
N    0.8864850110 0.9402951145 0.0000000000
