&control
    calculation = 'scf'
    prefix = 'di'
    verbosity = 'high'
    wf_collect = .true.
/

&system
    ibrav = 1
    a = 7.136588
    nat = 63
    ntyp = 2
    ecutwfc = 70
    tot_charge = -1
    nspin = 2
    occupations = 'from_input'
    nbnd = 152
    starting_magnetization(1:2) = 0.5, 0.5
/

&electrons
    mixing_beta = 0.5
/

&ions
/

ATOMIC_SPECIES
    C  12.0111  C_ONCV_PBE-1.0.upf
    N  14.0067  N_ONCV_PBE-1.0.upf

ATOMIC_POSITIONS crystal
    C         0.375785653       0.375785653       0.873557837
    C         0.500294588       0.000470898       0.000470898
    C         0.499969978      -0.000488795       0.499969978
    C         0.000470898       0.500294588       0.000470898
    C        -0.000488795       0.499969978       0.499969978
    C        -0.000123793      -0.000123793      -0.000123793
    C         0.000470898       0.000470898       0.500294588
    C         0.250489985       0.250489985      -0.000852395
    C         0.251510454       0.251510454       0.496596302
    C         0.250113173       0.749150752       0.000821732
    C         0.250884904       0.748747575       0.502180701
    C         0.749150752       0.250113173       0.000821732
    C         0.748747575       0.250884904       0.502180701
    C         0.749488116       0.749488116      -0.000942659
    C         0.499969978       0.499969978      -0.000488795
    C         0.748472019       0.748472019       0.498247916
    C         0.502180701       0.250884904       0.748747575
    C         0.502180701       0.748747575       0.250884904
    C         0.498247916       0.748472019       0.748472019
    C        -0.000852395       0.250489985       0.250489985
    C         0.000821732       0.250113173       0.749150752
    C         0.000821732       0.749150752       0.250113173
    C        -0.000942659       0.749488116       0.749488116
    C         0.251510454       0.496596302       0.251510454
    C         0.250884904       0.502180701       0.748747575
    C         0.250489985      -0.000852395       0.250489985
    C         0.250113173       0.000821732       0.749150752
    C         0.748747575       0.502180701       0.250884904
    C         0.748472019       0.498247916       0.748472019
    C         0.496596302       0.251510454       0.251510454
    C         0.749150752       0.000821732       0.250113173
    C         0.624170742       0.873535516       0.624170742
    C         0.636462486       0.361677543       0.636462486
    C         0.375655512       0.876224526       0.876224526
    C         0.375785653       0.873557837       0.375785653
    C         0.876224526       0.375655512       0.876224526
    C         0.873557837       0.375785653       0.375785653
    C         0.874453497       0.874453497       0.874453497
    C         0.876224526       0.876224526       0.375655512
    C         0.125368094       0.125368094       0.874453302
    C         0.124673171       0.124673171       0.374874222
    C         0.123481251       0.624290775       0.876194680
    C         0.126501415       0.623551734       0.376396842
    C         0.624290775       0.123481251       0.876194680
    C         0.623551734       0.126501415       0.376396842
    C         0.624290775       0.876194680       0.123481251
    C         0.624170742       0.624170742       0.873535516
    C         0.374874222       0.124673171       0.124673171
    C         0.376396842       0.126501415       0.623551734
    C         0.376396842       0.623551734       0.126501415
    C         0.361677543       0.636462486       0.636462486
    C         0.874453302       0.125368094       0.125368094
    C         0.876194680       0.123481251       0.624290775
    C         0.876194680       0.624290775       0.123481251
    C         0.873535516       0.624170742       0.624170742
    C         0.124673171       0.374874222       0.124673171
    C         0.126501415       0.376396842       0.623551734
    C         0.125368094       0.874453302       0.125368094
    C         0.123481251       0.876194680       0.624290775
    C         0.623551734       0.376396842       0.126501415
    C         0.636462486       0.636462486       0.361677543
    C         0.749488116      -0.000942659       0.749488116
    N         0.368258095       0.368258095       0.368258095

K_POINTS automatic
    3  3  3    0  0  0

OCCUPATIONS
    1.0000  1.0000  1.0000  1.0000  1.0000  1.0000  1.0000  1.0000
    1.0000  1.0000  1.0000  1.0000  1.0000  1.0000  1.0000  1.0000
    1.0000  1.0000  1.0000  1.0000  1.0000  1.0000  1.0000  1.0000
    1.0000  1.0000  1.0000  1.0000  1.0000  1.0000  1.0000  1.0000
    1.0000  1.0000  1.0000  1.0000  1.0000  1.0000  1.0000  1.0000
    1.0000  1.0000  1.0000  1.0000  1.0000  1.0000  1.0000  1.0000
    1.0000  1.0000  1.0000  1.0000  1.0000  1.0000  1.0000  1.0000
    1.0000  1.0000  1.0000  1.0000  1.0000  1.0000  1.0000  1.0000
    1.0000  1.0000  1.0000  1.0000  1.0000  1.0000  1.0000  1.0000
    1.0000  1.0000  1.0000  1.0000  1.0000  1.0000  1.0000  1.0000
    1.0000  1.0000  1.0000  1.0000  1.0000  1.0000  1.0000  1.0000
    1.0000  1.0000  1.0000  1.0000  1.0000  1.0000  1.0000  1.0000
    1.0000  1.0000  1.0000  1.0000  1.0000  1.0000  1.0000  1.0000
    1.0000  1.0000  1.0000  1.0000  1.0000  1.0000  1.0000  1.0000
    1.0000  1.0000  1.0000  1.0000  1.0000  1.0000  1.0000  1.0000
    1.0000  1.0000  1.0000  1.0000  1.0000  1.0000  1.0000  1.0000
    0.0000  0.0000  0.0000  0.0000  0.0000  0.0000  0.0000  0.0000
    0.0000  0.0000  0.0000  0.0000  0.0000  0.0000  0.0000  0.0000
    0.0000  0.0000  0.0000  0.0000  0.0000  0.0000  0.0000  0.0000
    1.0000  1.0000  1.0000  1.0000  1.0000  1.0000  1.0000  1.0000
    1.0000  1.0000  1.0000  1.0000  1.0000  1.0000  1.0000  1.0000
    1.0000  1.0000  1.0000  1.0000  1.0000  1.0000  1.0000  1.0000
    1.0000  1.0000  1.0000  1.0000  1.0000  1.0000  1.0000  1.0000
    1.0000  1.0000  1.0000  1.0000  1.0000  1.0000  1.0000  1.0000
    1.0000  1.0000  1.0000  1.0000  1.0000  1.0000  1.0000  1.0000
    1.0000  1.0000  1.0000  1.0000  1.0000  1.0000  1.0000  1.0000
    1.0000  1.0000  1.0000  1.0000  1.0000  1.0000  1.0000  1.0000
    1.0000  1.0000  1.0000  1.0000  1.0000  1.0000  1.0000  1.0000
    1.0000  1.0000  1.0000  1.0000  1.0000  1.0000  1.0000  1.0000
    1.0000  1.0000  1.0000  1.0000  1.0000  1.0000  1.0000  1.0000
    1.0000  1.0000  1.0000  1.0000  1.0000  1.0000  1.0000  1.0000
    1.0000  1.0000  1.0000  1.0000  1.0000  1.0000  1.0000  1.0000
    1.0000  1.0000  1.0000  1.0000  1.0000  1.0000  1.0000  1.0000
    1.0000  1.0000  1.0000  1.0000  1.0000  1.0000  1.0000  1.0000
    1.0000  1.0000  1.0000  1.0000  1.0000  0.0000  1.0000  0.0000
    0.0000  0.0000  0.0000  0.0000  0.0000  0.0000  0.0000  0.0000
    0.0000  0.0000  0.0000  0.0000  0.0000  0.0000  0.0000  0.0000
    0.0000  0.0000  0.0000  0.0000  0.0000  0.0000  0.0000  0.0000

