&control
    calculation = 'scf'
    wf_collect = .true.
    prefix = 'BN'
/

&system
    ibrav = 0
    nat = 71
    ntyp = 2
    nspin = 2
    ecutwfc = 55
    starting_magnetization(1:2) = 0.5, 0.5
    nbnd = 151
    tot_magnetization = 1
/

&electrons
    mixing_beta = 0.7
    conv_thr = 1e-08
/

&ions
/

ATOMIC_SPECIES
    B       10.8110  B_ONCV_PBE-1.0.upf
    N       14.0067  N_ONCV_PBE-1.0.upf

CELL_PARAMETERS angstrom
        15.043730000       0.000000000       0.000000000
        -7.521865000      13.028252348       0.000000000
         0.000000000       0.000000000      20.000000000

ATOMIC_POSITIONS crystal
    B           0.112531218       0.055651174       0.000000000
    B           0.112286057       0.221152431       0.000000000
    B           0.109609298       0.387321049       0.000000000
    B           0.107274689       0.553979313       0.000000000
    B           0.107114810       0.720512689       0.000000000
    B           0.108838539       0.887334472       0.000000000
    B           0.279551075       0.058070518       0.000000000
    B           0.285365978       0.228991016       0.000000000
    B           0.276578891       0.389633056       0.000000000
    B           0.273414463       0.555299504       0.000000000
    B           0.274178639       0.721988089       0.000000000
    B           0.275697155       0.889099121       0.000000000
    B           0.444319871       0.056509516       0.000000000
    B           0.449986425       0.228733716       0.000000000
    B           0.457852159       0.409379022       0.000000000
    B           0.438565001       0.557594939       0.000000000
    B           0.440874226       0.722760812       0.000000000
    B           0.442186449       0.888901806       0.000000000
    B           0.610519167       0.052694126       0.000000000
    B           0.614137764       0.218357071       0.000000000
    N           0.613836346       0.382367360       0.000000000
    B           0.586796181       0.538339027       0.000000000
    B           0.606515012       0.719589191       0.000000000
    B           0.608895644       0.886608814       0.000000000
    B           0.777172327       0.051337046       0.000000000
    B           0.778877870       0.217290786       0.000000000
    B           0.777797099       0.382008739       0.000000000
    B           0.767468493       0.546218471       0.000000000
    B           0.767186687       0.710832951       0.000000000
    B           0.774990647       0.883859368       0.000000000
    B           0.943951240       0.052195408       0.000000000
    B           0.944882521       0.219048875       0.000000000
    B           0.943488570       0.385658476       0.000000000
    B           0.939683051       0.551864571       0.000000000
    B           0.938111221       0.716611579       0.000000000
    B           0.940535736       0.883662828       0.000000000
    N           0.055777768       0.109613573       0.000000000
    N           0.055830666       0.275913367       0.000000000
    N           0.053782033       0.442590612       0.000000000
    N           0.051043168       0.608992335       0.000000000
    N           0.050726797       0.774954219       0.000000000
    N           0.053607947       0.942677562       0.000000000
    N           0.225867941       0.115061860       0.000000000
    N           0.224060357       0.278784444       0.000000000
    N           0.219891034       0.444171527       0.000000000
    N           0.218093974       0.610706721       0.000000000
    N           0.218737620       0.777464224       0.000000000
    N           0.221184017       0.945415036       0.000000000
    N           0.391861884       0.115586842       0.000000000
    N           0.401003636       0.291166214       0.000000000
    N           0.386527503       0.447413950       0.000000000
    N           0.383836548       0.612283978       0.000000000
    N           0.385466072       0.778088206       0.000000000
    N           0.387223677       0.945151761       0.000000000
    N           0.555483368       0.108654169       0.000000000
    N           0.562861709       0.277389245       0.000000000
    N           0.548768110       0.609679102       0.000000000
    N           0.551988225       0.776266702       0.000000000
    N           0.553572778       0.942417465       0.000000000
    N           0.721827720       0.106831905       0.000000000
    N           0.723805823       0.272291482       0.000000000
    N           0.718810324       0.433332935       0.000000000
    N           0.705100089       0.595260392       0.000000000
    N           0.717346041       0.772120153       0.000000000
    N           0.720339517       0.940393428       0.000000000
    N           0.888545911       0.107666234       0.000000000
    N           0.889356744       0.274368627       0.000000000
    N           0.887495290       0.440672028       0.000000000
    N           0.880578230       0.604288981       0.000000000
    N           0.881129894       0.770312808       0.000000000
    N           0.886497025       0.940354646       0.000000000

K_POINTS automatic
    1  1  1    0  0  0

