&control
    calculation = 'scf'
    prefix = 'di'
    verbosity = 'high'
    wf_collect = .true.
/

&system
    ibrav = 1
    a = 7.136588
    nat = 63
    ntyp = 2
    ecutwfc = 70
    tot_charge = -1
    nspin = 2
    occupations = 'smearing'
    smearing = 'mv'
    degauss = 0.001
    starting_magnetization(1:2) = 0.2, 0.2
    tot_magnetization = 0
/

&electrons
    mixing_beta = 0.5
/

&ions
/

ATOMIC_SPECIES
    C       12.0111  C_ONCV_PBE-1.0.upf
    N       14.0067  N_ONCV_PBE-1.0.upf

ATOMIC_POSITIONS crystal
    C           0.375737145       0.375737145       0.873688503
    C           0.500055655       0.000192723       0.000192723
    C           0.500053760      -0.000075562       0.500053760
    C           0.000192723       0.500055655       0.000192723
    C          -0.000075562       0.500053760       0.500053760
    C          -0.000111732      -0.000111732      -0.000111732
    C           0.000192723       0.000192723       0.500055655
    C           0.250225066       0.250225066      -0.001224206
    C           0.250640704       0.250640704       0.494786364
    C           0.250403732       0.749028916       0.001000610
    C           0.252612866       0.747774892       0.501641502
    C           0.749028916       0.250403732       0.001000610
    C           0.747774892       0.252612866       0.501641502
    C           0.749648969       0.749648969      -0.000216182
    C           0.500053760       0.500053760      -0.000075562
    C           0.749127785       0.749127785       0.498774580
    C           0.501641502       0.252612866       0.747774892
    C           0.501641502       0.747774892       0.252612866
    C           0.498774580       0.749127785       0.749127785
    C          -0.001224206       0.250225066       0.250225066
    C           0.001000610       0.250403732       0.749028916
    C           0.001000610       0.749028916       0.250403732
    C          -0.000216182       0.749648969       0.749648969
    C           0.250640704       0.494786364       0.250640704
    C           0.252612866       0.501641502       0.747774892
    C           0.250225066      -0.001224206       0.250225066
    C           0.250403732       0.001000610       0.749028916
    C           0.747774892       0.501641502       0.252612866
    C           0.749127785       0.498774580       0.749127785
    C           0.494786364       0.250640704       0.250640704
    C           0.749028916       0.001000610       0.250403732
    C           0.624671132       0.874433094       0.624671132
    C           0.634730200       0.367375101       0.634730200
    C           0.375892471       0.876202214       0.876202214
    C           0.375737145       0.873688503       0.375737145
    C           0.876202214       0.375892471       0.876202214
    C           0.873688503       0.375737145       0.375737145
    C           0.874707827       0.874707827       0.874707827
    C           0.876202214       0.876202214       0.375892471
    C           0.125383457       0.125383457       0.874247027
    C           0.123857168       0.123857168       0.374866153
    C           0.124358353       0.624549969       0.875848070
    C           0.127092976       0.622931433       0.376310140
    C           0.624549969       0.124358353       0.875848070
    C           0.622931433       0.127092976       0.376310140
    C           0.624549969       0.875848070       0.124358353
    C           0.624671132       0.624671132       0.874433094
    C           0.374866153       0.123857168       0.123857168
    C           0.376310140       0.127092976       0.622931433
    C           0.376310140       0.622931433       0.127092976
    C           0.367375101       0.634730200       0.634730200
    C           0.874247027       0.125383457       0.125383457
    C           0.875848070       0.124358353       0.624549969
    C           0.875848070       0.624549969       0.124358353
    C           0.874433094       0.624671132       0.624671132
    C           0.123857168       0.374866153       0.123857168
    C           0.127092976       0.376310140       0.622931433
    C           0.125383457       0.874247027       0.125383457
    C           0.124358353       0.875848070       0.624549969
    C           0.622931433       0.376310140       0.127092976
    C           0.634730200       0.634730200       0.367375101
    C           0.749648969      -0.000216182       0.749648969
    N           0.364753349       0.364753349       0.364753349

K_POINTS automatic
    1  1  1    0  0  0

