&control
    calculation = 'relax'
    prefix = 'di'
    verbosity = 'high'
    wf_collect = .true.
/

&system
    ibrav = 1
    A = 7.1365880000
    nat = 63
    ntyp = 2
    ecutwfc = 70
    tot_charge = -1
    nspin = 2
    occupations = "smearing"
    smearing = "mv"
    degauss = 1d-3
    starting_magnetization(1:2) = 0.2, 0.2
    tot_magnetization = 0
/

&electrons
    mixing_beta = 0.5
/

&ions
/

ATOMIC_SPECIES
 C  12.0111  C_ONCV_PBE-1.0.upf
 N  14.0067  N_ONCV_PBE-1.0.upf

ATOMIC_POSITIONS (crystal)
    C     0.375000000         0.375000000         0.875000000
    C     0.500000000         0.000000000         0.000000000
    C     0.500000000         0.000000000         0.500000000
    C     0.000000000         0.500000000         0.000000000
    C     0.000000000         0.500000000         0.500000000
    C     0.000000000         0.000000000         0.000000000
    C     0.000000000         0.000000000         0.500000000
    C     0.250000000         0.250000000         0.000000000
    C     0.250000000         0.250000000         0.500000000
    C     0.250000000         0.750000000         0.000000000
    C     0.250000000         0.750000000         0.500000000
    C     0.750000000         0.250000000         0.000000000
    C     0.750000000         0.250000000         0.500000000
    C     0.750000000         0.750000000         0.000000000
    C     0.500000000         0.500000000         0.000000000
    C     0.750000000         0.750000000         0.500000000
    C     0.500000000         0.250000000         0.750000000
    C     0.500000000         0.750000000         0.250000000
    C     0.500000000         0.750000000         0.750000000
    C     0.000000000         0.250000000         0.250000000
    C     0.000000000         0.250000000         0.750000000
    C     0.000000000         0.750000000         0.250000000
    C     0.000000000         0.750000000         0.750000000
    C     0.250000000         0.500000000         0.250000000
    C     0.250000000         0.500000000         0.750000000
    C     0.250000000         0.000000000         0.250000000
    C     0.250000000         0.000000000         0.750000000
    C     0.750000000         0.500000000         0.250000000
    C     0.750000000         0.500000000         0.750000000
    C     0.500000000         0.250000000         0.250000000
    C     0.750000000         0.000000000         0.250000000
    C     0.625000000         0.875000000         0.625000000
    C     0.625000000         0.375000000         0.625000000
    C     0.375000000         0.875000000         0.875000000
    C     0.375000000         0.875000000         0.375000000
    C     0.875000000         0.375000000         0.875000000
    C     0.875000000         0.375000000         0.375000000
    C     0.875000000         0.875000000         0.875000000
    C     0.875000000         0.875000000         0.375000000
    C     0.125000000         0.125000000         0.875000000
    C     0.125000000         0.125000000         0.375000000
    C     0.125000000         0.625000000         0.875000000
    C     0.125000000         0.625000000         0.375000000
    C     0.625000000         0.125000000         0.875000000
    C     0.625000000         0.125000000         0.375000000
    C     0.625000000         0.875000000         0.125000000
    C     0.625000000         0.625000000         0.875000000
    C     0.375000000         0.125000000         0.125000000
    C     0.375000000         0.125000000         0.625000000
    C     0.375000000         0.625000000         0.125000000
    C     0.375000000         0.625000000         0.625000000
    C     0.875000000         0.125000000         0.125000000
    C     0.875000000         0.125000000         0.625000000
    C     0.875000000         0.625000000         0.125000000
    C     0.875000000         0.625000000         0.625000000
    C     0.125000000         0.375000000         0.125000000
    C     0.125000000         0.375000000         0.625000000
    C     0.125000000         0.875000000         0.125000000
    C     0.125000000         0.875000000         0.625000000
    C     0.625000000         0.375000000         0.125000000
    C     0.625000000         0.625000000         0.375000000
    C     0.750000000         0.000000000         0.750000000
    N     0.375000000         0.375000000         0.375000000

K_POINTS (automatic)
 3 3 3 0 0 0 
