&control
    calculation = 'scf'
    wf_collect = .true.
    prefix = 'BN'
/

&system
    ibrav = 0
    nat = 71
    ntyp = 2
    nspin = 2
    ecutwfc = 55
    starting_magnetization(1:2) = 0.5, 0.5
    occupations = 'from_input'
    nbnd = 151
/

&electrons
    mixing_beta = 0.7
    conv_thr = 1e-06
    scf_must_converge = .false.
    electron_maxstep = 60
/

&ions
/

ATOMIC_SPECIES
    B       10.8110  B_ONCV_PBE-1.0.upf
    N       14.0067  N_ONCV_PBE-1.0.upf

CELL_PARAMETERS angstrom
        15.043730000       0.000000000       0.000000000
        -7.521865000      13.028252348       0.000000000
         0.000000000       0.000000000      20.000000000

ATOMIC_POSITIONS crystal
    B           0.112622864       0.055818793       0.000000000
    B           0.112997372       0.221440366       0.000000000
    B           0.110084884       0.387474790       0.000000000
    B           0.107126046       0.554129573       0.000000000
    B           0.106873479       0.720723131       0.000000000
    B           0.108680704       0.887465370       0.000000000
    B           0.279243575       0.058201304       0.000000000
    B           0.285882006       0.229589876       0.000000000
    B           0.277549502       0.390587629       0.000000000
    B           0.273146480       0.555710509       0.000000000
    B           0.273917952       0.722252729       0.000000000
    B           0.275452707       0.889269046       0.000000000
    B           0.444130084       0.056570739       0.000000000
    B           0.448075606       0.228825055       0.000000000
    B           0.461296127       0.413242101       0.000000000
    B           0.437959084       0.558196062       0.000000000
    B           0.440407537       0.722970187       0.000000000
    B           0.442067816       0.889044776       0.000000000
    B           0.610669206       0.052088770       0.000000000
    B           0.615102854       0.217254796       0.000000000
    N           0.616103383       0.380046820       0.000000000
    B           0.583034717       0.535023420       0.000000000
    B           0.605577722       0.718647539       0.000000000
    B           0.608711093       0.886078135       0.000000000
    B           0.777379970       0.050722013       0.000000000
    B           0.779701771       0.216484000       0.000000000
    B           0.778834138       0.381013224       0.000000000
    B           0.767333015       0.548143204       0.000000000
    B           0.766662301       0.710436396       0.000000000
    B           0.774742716       0.883193939       0.000000000
    B           0.944153536       0.052026317       0.000000000
    B           0.945466503       0.218819567       0.000000000
    B           0.944081631       0.385530273       0.000000000
    B           0.939543698       0.552028208       0.000000000
    B           0.937920013       0.716910760       0.000000000
    B           0.940455358       0.883659537       0.000000000
    N           0.055912151       0.109678842       0.000000000
    N           0.056075998       0.275954853       0.000000000
    N           0.053862122       0.442664764       0.000000000
    N           0.050492431       0.608967215       0.000000000
    N           0.050467574       0.775001935       0.000000000
    N           0.053588929       0.942750475       0.000000000
    N           0.226004743       0.115235981       0.000000000
    N           0.224320184       0.279057505       0.000000000
    N           0.219913254       0.444609399       0.000000000
    N           0.217554805       0.611103291       0.000000000
    N           0.218400801       0.777749129       0.000000000
    N           0.221103289       0.945603030       0.000000000
    N           0.392142056       0.116063289       0.000000000
    N           0.401159635       0.291062310       0.000000000
    N           0.386584967       0.448450313       0.000000000
    N           0.383049842       0.613015080       0.000000000
    N           0.385068463       0.778635012       0.000000000
    N           0.387215582       0.945630302       0.000000000
    N           0.555755225       0.108543783       0.000000000
    N           0.564569959       0.278333117       0.000000000
    N           0.547721716       0.609646445       0.000000000
    N           0.551522273       0.776214329       0.000000000
    N           0.553525420       0.942320729       0.000000000
    N           0.721995080       0.106508798       0.000000000
    N           0.724267273       0.271808943       0.000000000
    N           0.717805782       0.431633004       0.000000000
    N           0.705265596       0.595223699       0.000000000
    N           0.717099086       0.771911622       0.000000000
    N           0.720267710       0.940111733       0.000000000
    N           0.888643322       0.107552919       0.000000000
    N           0.889700759       0.274221858       0.000000000
    N           0.887547996       0.440387708       0.000000000
    N           0.880030615       0.603999241       0.000000000
    N           0.880999536       0.770262014       0.000000000
    N           0.886478337       0.940262041       0.000000000

K_POINTS automatic
    1  1  1    0  0  0

OCCUPATIONS
    1.0000  1.0000  1.0000  1.0000  1.0000  1.0000  1.0000  1.0000
    1.0000  1.0000  1.0000  1.0000  1.0000  1.0000  1.0000  1.0000
    1.0000  1.0000  1.0000  1.0000  1.0000  1.0000  1.0000  1.0000
    1.0000  1.0000  1.0000  1.0000  1.0000  1.0000  1.0000  1.0000
    1.0000  1.0000  1.0000  1.0000  1.0000  1.0000  1.0000  1.0000
    1.0000  1.0000  1.0000  1.0000  1.0000  1.0000  1.0000  1.0000
    1.0000  1.0000  1.0000  1.0000  1.0000  1.0000  1.0000  1.0000
    1.0000  1.0000  1.0000  1.0000  1.0000  1.0000  1.0000  1.0000
    1.0000  1.0000  1.0000  1.0000  1.0000  1.0000  1.0000  1.0000
    1.0000  1.0000  1.0000  1.0000  1.0000  1.0000  1.0000  1.0000
    1.0000  1.0000  1.0000  1.0000  1.0000  1.0000  1.0000  1.0000
    1.0000  1.0000  1.0000  1.0000  1.0000  1.0000  1.0000  1.0000
    1.0000  1.0000  1.0000  1.0000  1.0000  1.0000  1.0000  1.0000
    1.0000  1.0000  1.0000  1.0000  1.0000  1.0000  1.0000  1.0000
    1.0000  1.0000  1.0000  1.0000  1.0000  1.0000  1.0000  1.0000
    1.0000  1.0000  1.0000  1.0000  1.0000  1.0000  1.0000  1.0000
    1.0000  1.0000  1.0000  1.0000  1.0000  1.0000  1.0000  1.0000
    1.0000  1.0000  1.0000  1.0000  1.0000  1.0000  0.0000  1.0000
    0.0000  0.0000  0.0000  0.0000  0.0000  0.0000  0.0000
    1.0000  1.0000  1.0000  1.0000  1.0000  1.0000  1.0000  1.0000
    1.0000  1.0000  1.0000  1.0000  1.0000  1.0000  1.0000  1.0000
    1.0000  1.0000  1.0000  1.0000  1.0000  1.0000  1.0000  1.0000
    1.0000  1.0000  1.0000  1.0000  1.0000  1.0000  1.0000  1.0000
    1.0000  1.0000  1.0000  1.0000  1.0000  1.0000  1.0000  1.0000
    1.0000  1.0000  1.0000  1.0000  1.0000  1.0000  1.0000  1.0000
    1.0000  1.0000  1.0000  1.0000  1.0000  1.0000  1.0000  1.0000
    1.0000  1.0000  1.0000  1.0000  1.0000  1.0000  1.0000  1.0000
    1.0000  1.0000  1.0000  1.0000  1.0000  1.0000  1.0000  1.0000
    1.0000  1.0000  1.0000  1.0000  1.0000  1.0000  1.0000  1.0000
    1.0000  1.0000  1.0000  1.0000  1.0000  1.0000  1.0000  1.0000
    1.0000  1.0000  1.0000  1.0000  1.0000  1.0000  1.0000  1.0000
    1.0000  1.0000  1.0000  1.0000  1.0000  1.0000  1.0000  1.0000
    1.0000  1.0000  1.0000  1.0000  1.0000  1.0000  1.0000  1.0000
    1.0000  1.0000  1.0000  1.0000  1.0000  1.0000  1.0000  1.0000
    1.0000  1.0000  1.0000  1.0000  1.0000  1.0000  1.0000  1.0000
    1.0000  1.0000  1.0000  1.0000  1.0000  1.0000  1.0000  1.0000
    1.0000  1.0000  1.0000  1.0000  1.0000  1.0000  0.0000  0.0000
    0.0000  0.0000  0.0000  0.0000  0.0000  0.0000  0.0000

