&control
    calculation = 'scf'
    prefix = 'di'
    verbosity = 'high'
    wf_collect = .true.
/

&system
    ibrav = 1
    a = 7.136588
    nat = 63
    ntyp = 2
    ecutwfc = 70
    tot_charge = -1
    nspin = 2
    occupations = 'from_input'
    nbnd = 152
    starting_magnetization(1:2) = 0.5, 0.5
/

&electrons
    mixing_beta = 0.5
/

&ions
/

ATOMIC_SPECIES
    C       12.0111  C_ONCV_PBE-1.0.upf
    N       14.0067  N_ONCV_PBE-1.0.upf

ATOMIC_POSITIONS crystal
    C           0.375740177       0.375740177       0.873680336
    C           0.500070588       0.000210109       0.000210109
    C           0.500048523      -0.000101389       0.500048523
    C           0.000210109       0.500070588       0.000210109
    C          -0.000101389       0.500048523       0.500048523
    C          -0.000112486      -0.000112486      -0.000112486
    C           0.000210109       0.000210109       0.500070588
    C           0.250241623       0.250241623      -0.001200968
    C           0.250695063       0.250695063       0.494899485
    C           0.250385572       0.749036531       0.000989430
    C           0.252504869       0.747835684       0.501675202
    C           0.749036531       0.250385572       0.000989430
    C           0.747835684       0.252504869       0.501675202
    C           0.749638916       0.749638916      -0.000261587
    C           0.500048523       0.500048523      -0.000101389
    C           0.749086800       0.749086800       0.498741663
    C           0.501675202       0.252504869       0.747835684
    C           0.501675202       0.747835684       0.252504869
    C           0.498741663       0.749086800       0.749086800
    C          -0.001200968       0.250241623       0.250241623
    C           0.000989430       0.250385572       0.749036531
    C           0.000989430       0.749036531       0.250385572
    C          -0.000261587       0.749638916       0.749638916
    C           0.250695063       0.494899485       0.250695063
    C           0.252504869       0.501675202       0.747835684
    C           0.250241623      -0.001200968       0.250241623
    C           0.250385572       0.000989430       0.749036531
    C           0.747835684       0.501675202       0.252504869
    C           0.749086800       0.498741663       0.749086800
    C           0.494899485       0.250695063       0.250695063
    C           0.749036531       0.000989430       0.250385572
    C           0.624639857       0.874376996       0.624639857
    C           0.634838468       0.367019004       0.634838468
    C           0.375877661       0.876203609       0.876203609
    C           0.375740177       0.873680336       0.375740177
    C           0.876203609       0.375877661       0.876203609
    C           0.873680336       0.375740177       0.375740177
    C           0.874691931       0.874691931       0.874691931
    C           0.876203609       0.876203609       0.375877661
    C           0.125382497       0.125382497       0.874259919
    C           0.123908168       0.123908168       0.374866658
    C           0.124303534       0.624533769       0.875869734
    C           0.127056003       0.622970202       0.376315558
    C           0.624533769       0.124303534       0.875869734
    C           0.622970202       0.127056003       0.376315558
    C           0.624533769       0.875869734       0.124303534
    C           0.624639857       0.624639857       0.874376996
    C           0.374866658       0.123908168       0.123908168
    C           0.376315558       0.127056003       0.622970202
    C           0.376315558       0.622970202       0.127056003
    C           0.367019004       0.634838468       0.634838468
    C           0.874259919       0.125382497       0.125382497
    C           0.875869734       0.124303534       0.624533769
    C           0.875869734       0.624533769       0.124303534
    C           0.874376996       0.624639857       0.624639857
    C           0.123908168       0.374866658       0.123908168
    C           0.127056003       0.376315558       0.622970202
    C           0.125382497       0.874259919       0.125382497
    C           0.124303534       0.875869734       0.624533769
    C           0.622970202       0.376315558       0.127056003
    C           0.634838468       0.634838468       0.367019004
    C           0.749638916      -0.000261587       0.749638916
    N           0.364972396       0.364972396       0.364972396

K_POINTS automatic
    1  1  1    0  0  0

OCCUPATIONS
    1.0000  1.0000  1.0000  1.0000  1.0000  1.0000  1.0000  1.0000
    1.0000  1.0000  1.0000  1.0000  1.0000  1.0000  1.0000  1.0000
    1.0000  1.0000  1.0000  1.0000  1.0000  1.0000  1.0000  1.0000
    1.0000  1.0000  1.0000  1.0000  1.0000  1.0000  1.0000  1.0000
    1.0000  1.0000  1.0000  1.0000  1.0000  1.0000  1.0000  1.0000
    1.0000  1.0000  1.0000  1.0000  1.0000  1.0000  1.0000  1.0000
    1.0000  1.0000  1.0000  1.0000  1.0000  1.0000  1.0000  1.0000
    1.0000  1.0000  1.0000  1.0000  1.0000  1.0000  1.0000  1.0000
    1.0000  1.0000  1.0000  1.0000  1.0000  1.0000  1.0000  1.0000
    1.0000  1.0000  1.0000  1.0000  1.0000  1.0000  1.0000  1.0000
    1.0000  1.0000  1.0000  1.0000  1.0000  1.0000  1.0000  1.0000
    1.0000  1.0000  1.0000  1.0000  1.0000  1.0000  1.0000  1.0000
    1.0000  1.0000  1.0000  1.0000  1.0000  1.0000  1.0000  1.0000
    1.0000  1.0000  1.0000  1.0000  1.0000  1.0000  1.0000  1.0000
    1.0000  1.0000  1.0000  1.0000  1.0000  1.0000  1.0000  1.0000
    1.0000  1.0000  1.0000  1.0000  1.0000  1.0000  1.0000  1.0000
    0.0000  0.0000  0.0000  0.0000  0.0000  0.0000  0.0000  0.0000
    0.0000  0.0000  0.0000  0.0000  0.0000  0.0000  0.0000  0.0000
    0.0000  0.0000  0.0000  0.0000  0.0000  0.0000  0.0000  0.0000
    1.0000  1.0000  1.0000  1.0000  1.0000  1.0000  1.0000  1.0000
    1.0000  1.0000  1.0000  1.0000  1.0000  1.0000  1.0000  1.0000
    1.0000  1.0000  1.0000  1.0000  1.0000  1.0000  1.0000  1.0000
    1.0000  1.0000  1.0000  1.0000  1.0000  1.0000  1.0000  1.0000
    1.0000  1.0000  1.0000  1.0000  1.0000  1.0000  1.0000  1.0000
    1.0000  1.0000  1.0000  1.0000  1.0000  1.0000  1.0000  1.0000
    1.0000  1.0000  1.0000  1.0000  1.0000  1.0000  1.0000  1.0000
    1.0000  1.0000  1.0000  1.0000  1.0000  1.0000  1.0000  1.0000
    1.0000  1.0000  1.0000  1.0000  1.0000  1.0000  1.0000  1.0000
    1.0000  1.0000  1.0000  1.0000  1.0000  1.0000  1.0000  1.0000
    1.0000  1.0000  1.0000  1.0000  1.0000  1.0000  1.0000  1.0000
    1.0000  1.0000  1.0000  1.0000  1.0000  1.0000  1.0000  1.0000
    1.0000  1.0000  1.0000  1.0000  1.0000  1.0000  1.0000  1.0000
    1.0000  1.0000  1.0000  1.0000  1.0000  1.0000  1.0000  1.0000
    1.0000  1.0000  1.0000  1.0000  1.0000  1.0000  1.0000  1.0000
    1.0000  1.0000  1.0000  1.0000  1.0000  0.0000  1.0000  0.0000
    0.0000  0.0000  0.0000  0.0000  0.0000  0.0000  0.0000  0.0000
    0.0000  0.0000  0.0000  0.0000  0.0000  0.0000  0.0000  0.0000
    0.0000  0.0000  0.0000  0.0000  0.0000  0.0000  0.0000  0.0000

