&control
    calculation = 'scf'
    wf_collect = .true.
    prefix = 'BN'
    outdir = '.'
/

&system
    ibrav = 0
    nat = 71
    ntyp = 2
    nspin = 2
    ecutwfc = 55
    starting_magnetization(1:2) = 0.5, 0.5
    occupations = 'from_input'
    nbnd = 151
/

&electrons
    mixing_beta = 0.7
    conv_thr = 1e-06
    scf_must_converge = .false.
    electron_maxstep = 60
/

&ions
/

ATOMIC_SPECIES
    B  10.811  B_ONCV_PBE-1.0.upf
    N  14.0067  N_ONCV_PBE-1.0.upf

CELL_PARAMETERS angstrom
        15.043730000       0.000000000       0.000000000
        -7.521865000      13.028252348       0.000000000
         0.000000000       0.000000000      20.000000000

K_POINTS automatic
    1  1  1    0  0  0

ATOMIC_POSITIONS crystal
B    0.1126228642 0.0558187930 0.0000000000
B    0.1129973720 0.2214403660 0.0000000000
B    0.1100848840 0.3874747905 0.0000000000
B    0.1071260465 0.5541295727 0.0000000000
B    0.1068734787 0.7207231310 0.0000000000
B    0.1086807038 0.8874653698 0.0000000000
B    0.2792435752 0.0582013038 0.0000000000
B    0.2858820062 0.2295898755 0.0000000000
B    0.2775495022 0.3905876290 0.0000000000
B    0.2731464795 0.5557105092 0.0000000000
B    0.2739179523 0.7222527288 0.0000000000
B    0.2754527070 0.8892690463 0.0000000000
B    0.4441300840 0.0565707388 0.0000000000
B    0.4480756055 0.2288250550 0.0000000000
B    0.4612961272 0.4132421010 0.0000000000
B    0.4379590840 0.5581960615 0.0000000000
B    0.4404075367 0.7229701865 0.0000000000
B    0.4420678160 0.8890447763 0.0000000000
B    0.6106692058 0.0520887705 0.0000000000
B    0.6151028540 0.2172547958 0.0000000000
N    0.6161033830 0.3800468195 0.0000000000
B    0.5830347170 0.5350234202 0.0000000000
B    0.6055777222 0.7186475393 0.0000000000
B    0.6087110930 0.8860781353 0.0000000000
B    0.7773799705 0.0507220135 0.0000000000
B    0.7797017708 0.2164840000 0.0000000000
B    0.7788341380 0.3810132240 0.0000000000
B    0.7673330150 0.5481432035 0.0000000000
B    0.7666623007 0.7104363958 0.0000000000
B    0.7747427157 0.8831939393 0.0000000000
B    0.9441535362 0.0520263168 0.0000000000
B    0.9454665030 0.2188195675 0.0000000000
B    0.9440816312 0.3855302728 0.0000000000
B    0.9395436980 0.5520282075 0.0000000000
B    0.9379200128 0.7169107597 0.0000000000
B    0.9404553582 0.8836595373 0.0000000000
N    0.0559121510 0.1096788418 0.0000000000
N    0.0560759975 0.2759548527 0.0000000000
N    0.0538621225 0.4426647640 0.0000000000
N    0.0504924315 0.6089672152 0.0000000000
N    0.0504675737 0.7750019355 0.0000000000
N    0.0535889285 0.9427504747 0.0000000000
N    0.2260047430 0.1152359810 0.0000000000
N    0.2243201838 0.2790575053 0.0000000000
N    0.2199132542 0.4446093985 0.0000000000
N    0.2175548053 0.6111032910 0.0000000000
N    0.2184008008 0.7777491293 0.0000000000
N    0.2211032893 0.9456030303 0.0000000000
N    0.3921420558 0.1160632885 0.0000000000
N    0.4011596350 0.2910623098 0.0000000000
N    0.3865849670 0.4484503133 0.0000000000
N    0.3830498422 0.6130150800 0.0000000000
N    0.3850684625 0.7786350120 0.0000000000
N    0.3872155820 0.9456303025 0.0000000000
N    0.5557552252 0.1085437827 0.0000000000
N    0.5645699587 0.2783331170 0.0000000000
N    0.5477217155 0.6096464445 0.0000000000
N    0.5515222733 0.7762143287 0.0000000000
N    0.5535254205 0.9423207287 0.0000000000
N    0.7219950805 0.1065087982 0.0000000000
N    0.7242672733 0.2718089432 0.0000000000
N    0.7178057820 0.4316330043 0.0000000000
N    0.7052655963 0.5952236987 0.0000000000
N    0.7170990863 0.7719116222 0.0000000000
N    0.7202677095 0.9401117325 0.0000000000
N    0.8886433215 0.1075529195 0.0000000000
N    0.8897007587 0.2742218583 0.0000000000
N    0.8875479955 0.4403877085 0.0000000000
N    0.8800306147 0.6039992415 0.0000000000
N    0.8809995363 0.7702620145 0.0000000000
N    0.8864783365 0.9402620413 0.0000000000
OCCUPATIONS
    1    1    1    1    1    1    1    1
    1    1    1    1    1    1    1    1
    1    1    1    1    1    1    1    1
    1    1    1    1    1    1    1    1
    1    1    1    1    1    1    1    1
    1    1    1    1    1    1    1    1
    1    1    1    1    1    1    1    1
    1    1    1    1    1    1    1    1
    1    1    1    1    1    1    1    1
    1    1    1    1    1    1    1    1
    1    1    1    1    1    1    1    1
    1    1    1    1    1    1    1    1
    1    1    1    1    1    1    1    1
    1    1    1    1    1    1    1    1
    1    1    1    1    1    1    1    1
    1    1    1    1    1    1    1    1
    1    1    1    1    1    1    1    1
    1    1    1    1    1    1    0    1
    0    0    0    0    0    0    0
    1    1    1    1    1    1    1    1
    1    1    1    1    1    1    1    1
    1    1    1    1    1    1    1    1
    1    1    1    1    1    1    1    1
    1    1    1    1    1    1    1    1
    1    1    1    1    1    1    1    1
    1    1    1    1    1    1    1    1
    1    1    1    1    1    1    1    1
    1    1    1    1    1    1    1    1
    1    1    1    1    1    1    1    1
    1    1    1    1    1    1    1    1
    1    1    1    1    1    1    1    1
    1    1    1    1    1    1    1    1
    1    1    1    1    1    1    1    1
    1    1    1    1    1    1    1    1
    1    1    1    1    1    1    1    1
    1    1    1    1    1    1    1    1
    1    1    1    1    1    1    0    0
    0    0    0    0    0    0    0

