&control
    calculation = 'scf'
    prefix = 'di'
    verbosity = 'high'
    wf_collect = .true.
/

&system
    ibrav = 1
    a = 7.136588
    nat = 63
    ntyp = 2
    ecutwfc = 70
    tot_charge = -1
    nspin = 2
    occupations = 'from_input'
    nbnd = 152
    starting_magnetization(1:2) = 0.5, 0.5
/

&electrons
    mixing_beta = 0.5
/

&ions
/

ATOMIC_SPECIES
    C  12.0111  C_ONCV_PBE-1.0.upf
    N  14.0067  N_ONCV_PBE-1.0.upf

ATOMIC_POSITIONS crystal
    C         0.375734113       0.375734113       0.873696669
    C         0.500040722       0.000175337       0.000175337
    C         0.500058996      -0.000049735       0.500058996
    C         0.000175337       0.500040722       0.000175337
    C        -0.000049735       0.500058996       0.500058996
    C        -0.000110978      -0.000110978      -0.000110978
    C         0.000175337       0.000175337       0.500040722
    C         0.250208508       0.250208508      -0.001247444
    C         0.250586344       0.250586344       0.494673243
    C         0.250421892       0.749021301       0.001011789
    C         0.252720864       0.747714099       0.501607802
    C         0.749021301       0.250421892       0.001011789
    C         0.747714099       0.252720864       0.501607802
    C         0.749659022       0.749659022      -0.000170777
    C         0.500058996       0.500058996      -0.000049735
    C         0.749168771       0.749168771       0.498807497
    C         0.501607802       0.252720864       0.747714099
    C         0.501607802       0.747714099       0.252720864
    C         0.498807497       0.749168771       0.749168771
    C        -0.001247444       0.250208508       0.250208508
    C         0.001011789       0.250421892       0.749021301
    C         0.001011789       0.749021301       0.250421892
    C        -0.000170777       0.749659022       0.749659022
    C         0.250586344       0.494673243       0.250586344
    C         0.252720864       0.501607802       0.747714099
    C         0.250208508      -0.001247444       0.250208508
    C         0.250421892       0.001011789       0.749021301
    C         0.747714099       0.501607802       0.252720864
    C         0.749168771       0.498807497       0.749168771
    C         0.494673243       0.250586344       0.250586344
    C         0.749021301       0.001011789       0.250421892
    C         0.624702406       0.874489193       0.624702406
    C         0.634621933       0.367731199       0.634621933
    C         0.375907281       0.876200819       0.876200819
    C         0.375734113       0.873696669       0.375734113
    C         0.876200819       0.375907281       0.876200819
    C         0.873696669       0.375734113       0.375734113
    C         0.874723722       0.874723722       0.874723722
    C         0.876200819       0.876200819       0.375907281
    C         0.125384417       0.125384417       0.874234135
    C         0.123806168       0.123806168       0.374865649
    C         0.124413171       0.624566168       0.875826407
    C         0.127129948       0.622892664       0.376304721
    C         0.624566168       0.124413171       0.875826407
    C         0.622892664       0.127129948       0.376304721
    C         0.624566168       0.875826407       0.124413171
    C         0.624702406       0.624702406       0.874489193
    C         0.374865649       0.123806168       0.123806168
    C         0.376304721       0.127129948       0.622892664
    C         0.376304721       0.622892664       0.127129948
    C         0.367731199       0.634621933       0.634621933
    C         0.874234135       0.125384417       0.125384417
    C         0.875826407       0.124413171       0.624566168
    C         0.875826407       0.624566168       0.124413171
    C         0.874489193       0.624702406       0.624702406
    C         0.123806168       0.374865649       0.123806168
    C         0.127129948       0.376304721       0.622892664
    C         0.125384417       0.874234135       0.125384417
    C         0.124413171       0.875826407       0.624566168
    C         0.622892664       0.376304721       0.127129948
    C         0.634621933       0.634621933       0.367731199
    C         0.749659022      -0.000170777       0.749659022
    N         0.364534303       0.364534303       0.364534303

K_POINTS automatic
    3  3  3    0  0  0

OCCUPATIONS
    1.0000  1.0000  1.0000  1.0000  1.0000  1.0000  1.0000  1.0000
    1.0000  1.0000  1.0000  1.0000  1.0000  1.0000  1.0000  1.0000
    1.0000  1.0000  1.0000  1.0000  1.0000  1.0000  1.0000  1.0000
    1.0000  1.0000  1.0000  1.0000  1.0000  1.0000  1.0000  1.0000
    1.0000  1.0000  1.0000  1.0000  1.0000  1.0000  1.0000  1.0000
    1.0000  1.0000  1.0000  1.0000  1.0000  1.0000  1.0000  1.0000
    1.0000  1.0000  1.0000  1.0000  1.0000  1.0000  1.0000  1.0000
    1.0000  1.0000  1.0000  1.0000  1.0000  1.0000  1.0000  1.0000
    1.0000  1.0000  1.0000  1.0000  1.0000  1.0000  1.0000  1.0000
    1.0000  1.0000  1.0000  1.0000  1.0000  1.0000  1.0000  1.0000
    1.0000  1.0000  1.0000  1.0000  1.0000  1.0000  1.0000  1.0000
    1.0000  1.0000  1.0000  1.0000  1.0000  1.0000  1.0000  1.0000
    1.0000  1.0000  1.0000  1.0000  1.0000  1.0000  1.0000  1.0000
    1.0000  1.0000  1.0000  1.0000  1.0000  1.0000  1.0000  1.0000
    1.0000  1.0000  1.0000  1.0000  1.0000  1.0000  1.0000  1.0000
    1.0000  1.0000  1.0000  1.0000  1.0000  1.0000  1.0000  1.0000
    0.0000  0.0000  0.0000  0.0000  0.0000  0.0000  0.0000  0.0000
    0.0000  0.0000  0.0000  0.0000  0.0000  0.0000  0.0000  0.0000
    0.0000  0.0000  0.0000  0.0000  0.0000  0.0000  0.0000  0.0000
    1.0000  1.0000  1.0000  1.0000  1.0000  1.0000  1.0000  1.0000
    1.0000  1.0000  1.0000  1.0000  1.0000  1.0000  1.0000  1.0000
    1.0000  1.0000  1.0000  1.0000  1.0000  1.0000  1.0000  1.0000
    1.0000  1.0000  1.0000  1.0000  1.0000  1.0000  1.0000  1.0000
    1.0000  1.0000  1.0000  1.0000  1.0000  1.0000  1.0000  1.0000
    1.0000  1.0000  1.0000  1.0000  1.0000  1.0000  1.0000  1.0000
    1.0000  1.0000  1.0000  1.0000  1.0000  1.0000  1.0000  1.0000
    1.0000  1.0000  1.0000  1.0000  1.0000  1.0000  1.0000  1.0000
    1.0000  1.0000  1.0000  1.0000  1.0000  1.0000  1.0000  1.0000
    1.0000  1.0000  1.0000  1.0000  1.0000  1.0000  1.0000  1.0000
    1.0000  1.0000  1.0000  1.0000  1.0000  1.0000  1.0000  1.0000
    1.0000  1.0000  1.0000  1.0000  1.0000  1.0000  1.0000  1.0000
    1.0000  1.0000  1.0000  1.0000  1.0000  1.0000  1.0000  1.0000
    1.0000  1.0000  1.0000  1.0000  1.0000  1.0000  1.0000  1.0000
    1.0000  1.0000  1.0000  1.0000  1.0000  1.0000  1.0000  1.0000
    1.0000  1.0000  1.0000  1.0000  1.0000  0.0000  1.0000  0.0000
    0.0000  0.0000  0.0000  0.0000  0.0000  0.0000  0.0000  0.0000
    0.0000  0.0000  0.0000  0.0000  0.0000  0.0000  0.0000  0.0000
    0.0000  0.0000  0.0000  0.0000  0.0000  0.0000  0.0000  0.0000

