&control
    calculation = 'relax'
    wf_collect = .true.
    prefix = 'BN'
/

&system
    ibrav = 0
    nat = 71
    ntyp = 2
    nspin = 2
    ecutwfc = 55
    starting_magnetization(1:2) = 0.5, 0.5
    occupations = 'from_input'
    nbnd = 151
/

&electrons
    mixing_beta = 0.7
    conv_thr = 1e-06
    scf_must_converge = .false.
    electron_maxstep = 60
/

&ions
/

ATOMIC_SPECIES
    B  10.811  B_ONCV_PBE-1.0.upf
    N  14.0067  N_ONCV_PBE-1.0.upf

CELL_PARAMETERS angstrom
        15.043730000       0.000000000       0.000000000
        -7.521865000      13.028252348       0.000000000
         0.000000000       0.000000000      20.000000000

ATOMIC_POSITIONS crystal
    B         0.112538276       0.055632544       0.000000000
    B         0.112221530       0.221132698       0.000000000
    B         0.109597693       0.387335430       0.000000000
    B         0.107277073       0.553957336       0.000000000
    B         0.107142814       0.720493579       0.000000000
    B         0.108868564       0.887336782       0.000000000
    B         0.279579517       0.058093790       0.000000000
    B         0.285340690       0.228959852       0.000000000
    B         0.276517704       0.389528252       0.000000000
    B         0.273453794       0.555268968       0.000000000
    B         0.274180078       0.721961863       0.000000000
    B         0.275717473       0.889098019       0.000000000
    B         0.444336894       0.056533130       0.000000000
    B         0.450132657       0.228740113       0.000000000
    B         0.457589103       0.409071645       0.000000000
    B         0.438589784       0.557519243       0.000000000
    B         0.440942777       0.722773735       0.000000000
    B         0.442173819       0.888891298       0.000000000
    B         0.610495838       0.052739667       0.000000000
    B         0.614062167       0.218478855       0.000000000
    N         0.613766137       0.382467634       0.000000000
    B         0.587070479       0.538565451       0.000000000
    B         0.606585820       0.719616875       0.000000000
    B         0.608895913       0.886645194       0.000000000
    B         0.777178287       0.051407682       0.000000000
    B         0.778829849       0.217346871       0.000000000
    B         0.777706875       0.382109993       0.000000000
    B         0.767449635       0.546065602       0.000000000
    B         0.767205467       0.710827892       0.000000000
    B         0.775002625       0.883906210       0.000000000
    B         0.943933583       0.052218821       0.000000000
    B         0.944839398       0.219075082       0.000000000
    B         0.943424893       0.385655121       0.000000000
    B         0.939693811       0.551848328       0.000000000
    B         0.938118345       0.716605579       0.000000000
    B         0.940519191       0.883628975       0.000000000
    N         0.055782127       0.109606858       0.000000000
    N         0.055798950       0.275945010       0.000000000
    N         0.053751852       0.442585950       0.000000000
    N         0.051114838       0.608985459       0.000000000
    N         0.050792135       0.774985764       0.000000000
    N         0.053540825       0.942597110       0.000000000
    N         0.225876313       0.115100234       0.000000000
    N         0.224011794       0.278729125       0.000000000
    N         0.219976572       0.444154182       0.000000000
    N         0.218102374       0.610624807       0.000000000
    N         0.218766787       0.777464792       0.000000000
    N         0.221229506       0.945457191       0.000000000
    N         0.391846989       0.115568950       0.000000000
    N         0.400962790       0.291127905       0.000000000
    N         0.386501783       0.447275153       0.000000000
    N         0.383928950       0.612286496       0.000000000
    N         0.385488708       0.778045322       0.000000000
    N         0.387218676       0.945140696       0.000000000
    N         0.555466108       0.108718013       0.000000000
    N         0.562807617       0.277430173       0.000000000
    N         0.548809540       0.609605546       0.000000000
    N         0.552086651       0.776291024       0.000000000
    N         0.553540986       0.942392170       0.000000000
    N         0.721806111       0.106848962       0.000000000
    N         0.723802939       0.272345521       0.000000000
    N         0.718791573       0.433411602       0.000000000
    N         0.705033150       0.595226158       0.000000000
    N         0.717368157       0.772093943       0.000000000
    N         0.720309416       0.940433671       0.000000000
    N         0.888560582       0.107729137       0.000000000
    N         0.889340496       0.274369351       0.000000000
    N         0.887475163       0.440701199       0.000000000
    N         0.880619202       0.604300859       0.000000000
    N         0.881095789       0.770320482       0.000000000
    N         0.886515959       0.940356744       0.000000000

K_POINTS automatic
    1  1  1    0  0  0

OCCUPATIONS
    1    1    1    1    1    1    1    1
    1    1    1    1    1    1    1    1
    1    1    1    1    1    1    1    1
    1    1    1    1    1    1    1    1
    1    1    1    1    1    1    1    1
    1    1    1    1    1    1    1    1
    1    1    1    1    1    1    1    1
    1    1    1    1    1    1    1    1
    1    1    1    1    1    1    1    1
    1    1    1    1    1    1    1    1
    1    1    1    1    1    1    1    1
    1    1    1    1    1    1    1    1
    1    1    1    1    1    1    1    1
    1    1    1    1    1    1    1    1
    1    1    1    1    1    1    1    1
    1    1    1    1    1    1    1    1
    1    1    1    1    1    1    1    1
    1    1    1    1    1    1    0    1
    0    0    0    0    0    0    0
    1    1    1    1    1    1    1    1
    1    1    1    1    1    1    1    1
    1    1    1    1    1    1    1    1
    1    1    1    1    1    1    1    1
    1    1    1    1    1    1    1    1
    1    1    1    1    1    1    1    1
    1    1    1    1    1    1    1    1
    1    1    1    1    1    1    1    1
    1    1    1    1    1    1    1    1
    1    1    1    1    1    1    1    1
    1    1    1    1    1    1    1    1
    1    1    1    1    1    1    1    1
    1    1    1    1    1    1    1    1
    1    1    1    1    1    1    1    1
    1    1    1    1    1    1    1    1
    1    1    1    1    1    1    1    1
    1    1    1    1    1    1    1    1
    1    1    1    1    1    1    0    0
    0    0    0    0    0    0    0

