&control
    calculation = 'scf'
    prefix = 'di'
    verbosity = 'high'
    wf_collect = .true.
/

&system
    ibrav = 1
    a = 7.136588
    nat = 63
    ntyp = 2
    ecutwfc = 70
    tot_charge = -1
    nspin = 2
    occupations = 'from_input'
    nbnd = 152
    starting_magnetization(1:2) = 0.5, 0.5
/

&electrons
    mixing_beta = 0.5
/

&ions
/

ATOMIC_SPECIES
    C  12.0111  C_ONCV_PBE-1.0.upf
    N  14.0067  N_ONCV_PBE-1.0.upf

ATOMIC_POSITIONS crystal
    C         0.375770494       0.375770494       0.873598670
    C         0.500219922       0.000383968       0.000383968
    C         0.499996160      -0.000359660       0.499996160
    C         0.000383968       0.500219922       0.000383968
    C        -0.000359660       0.499996160       0.499996160
    C        -0.000120024      -0.000120024      -0.000120024
    C         0.000383968       0.000383968       0.500219922
    C         0.250407198       0.250407198      -0.000968586
    C         0.251238657       0.251238657       0.496030696
    C         0.250203973       0.749112678       0.000877631
    C         0.251424892       0.748443612       0.502012201
    C         0.749112678       0.250203973       0.000877631
    C         0.748443612       0.251424892       0.502012201
    C         0.749538382       0.749538382      -0.000715635
    C         0.499996160       0.499996160      -0.000359660
    C         0.748676946       0.748676946       0.498412499
    C         0.502012201       0.251424892       0.748443612
    C         0.502012201       0.748443612       0.251424892
    C         0.498412499       0.748676946       0.748676946
    C        -0.000968586       0.250407198       0.250407198
    C         0.000877631       0.250203973       0.749112678
    C         0.000877631       0.749112678       0.250203973
    C        -0.000715635       0.749538382       0.749538382
    C         0.251238657       0.496030696       0.251238657
    C         0.251424892       0.502012201       0.748443612
    C         0.250407198      -0.000968586       0.250407198
    C         0.250203973       0.000877631       0.749112678
    C         0.748443612       0.502012201       0.251424892
    C         0.748676946       0.498412499       0.748676946
    C         0.496030696       0.251238657       0.251238657
    C         0.749112678       0.000877631       0.250203973
    C         0.624327114       0.873816009       0.624327114
    C         0.635921147       0.363458030       0.635921147
    C         0.375729562       0.876217553       0.876217553
    C         0.375770494       0.873598670       0.375770494
    C         0.876217553       0.375729562       0.876217553
    C         0.873598670       0.375770494       0.375770494
    C         0.874532975       0.874532975       0.874532975
    C         0.876217553       0.876217553       0.375729562
    C         0.125372895       0.125372895       0.874388841
    C         0.124418170       0.124418170       0.374871701
    C         0.123755345       0.624371773       0.876086364
    C         0.126686278       0.623357890       0.376369747
    C         0.624371773       0.123755345       0.876086364
    C         0.623357890       0.126686278       0.376369747
    C         0.624371773       0.876086364       0.123755345
    C         0.624327114       0.624327114       0.873816009
    C         0.374871701       0.124418170       0.124418170
    C         0.376369747       0.126686278       0.623357890
    C         0.376369747       0.623357890       0.126686278
    C         0.363458030       0.635921147       0.635921147
    C         0.874388841       0.125372895       0.125372895
    C         0.876086364       0.123755345       0.624371773
    C         0.876086364       0.624371773       0.123755345
    C         0.873816009       0.624327114       0.624327114
    C         0.124418170       0.374871701       0.124418170
    C         0.126686278       0.376369747       0.623357890
    C         0.125372895       0.874388841       0.125372895
    C         0.123755345       0.876086364       0.624371773
    C         0.623357890       0.376369747       0.126686278
    C         0.635921147       0.635921147       0.363458030
    C         0.749538382      -0.000715635       0.749538382
    N         0.367162862       0.367162862       0.367162862

K_POINTS automatic
    3  3  3    0  0  0

OCCUPATIONS
    1.0000  1.0000  1.0000  1.0000  1.0000  1.0000  1.0000  1.0000
    1.0000  1.0000  1.0000  1.0000  1.0000  1.0000  1.0000  1.0000
    1.0000  1.0000  1.0000  1.0000  1.0000  1.0000  1.0000  1.0000
    1.0000  1.0000  1.0000  1.0000  1.0000  1.0000  1.0000  1.0000
    1.0000  1.0000  1.0000  1.0000  1.0000  1.0000  1.0000  1.0000
    1.0000  1.0000  1.0000  1.0000  1.0000  1.0000  1.0000  1.0000
    1.0000  1.0000  1.0000  1.0000  1.0000  1.0000  1.0000  1.0000
    1.0000  1.0000  1.0000  1.0000  1.0000  1.0000  1.0000  1.0000
    1.0000  1.0000  1.0000  1.0000  1.0000  1.0000  1.0000  1.0000
    1.0000  1.0000  1.0000  1.0000  1.0000  1.0000  1.0000  1.0000
    1.0000  1.0000  1.0000  1.0000  1.0000  1.0000  1.0000  1.0000
    1.0000  1.0000  1.0000  1.0000  1.0000  1.0000  1.0000  1.0000
    1.0000  1.0000  1.0000  1.0000  1.0000  1.0000  1.0000  1.0000
    1.0000  1.0000  1.0000  1.0000  1.0000  1.0000  1.0000  1.0000
    1.0000  1.0000  1.0000  1.0000  1.0000  1.0000  1.0000  1.0000
    1.0000  1.0000  1.0000  1.0000  1.0000  1.0000  1.0000  1.0000
    0.0000  0.0000  0.0000  0.0000  0.0000  0.0000  0.0000  0.0000
    0.0000  0.0000  0.0000  0.0000  0.0000  0.0000  0.0000  0.0000
    0.0000  0.0000  0.0000  0.0000  0.0000  0.0000  0.0000  0.0000
    1.0000  1.0000  1.0000  1.0000  1.0000  1.0000  1.0000  1.0000
    1.0000  1.0000  1.0000  1.0000  1.0000  1.0000  1.0000  1.0000
    1.0000  1.0000  1.0000  1.0000  1.0000  1.0000  1.0000  1.0000
    1.0000  1.0000  1.0000  1.0000  1.0000  1.0000  1.0000  1.0000
    1.0000  1.0000  1.0000  1.0000  1.0000  1.0000  1.0000  1.0000
    1.0000  1.0000  1.0000  1.0000  1.0000  1.0000  1.0000  1.0000
    1.0000  1.0000  1.0000  1.0000  1.0000  1.0000  1.0000  1.0000
    1.0000  1.0000  1.0000  1.0000  1.0000  1.0000  1.0000  1.0000
    1.0000  1.0000  1.0000  1.0000  1.0000  1.0000  1.0000  1.0000
    1.0000  1.0000  1.0000  1.0000  1.0000  1.0000  1.0000  1.0000
    1.0000  1.0000  1.0000  1.0000  1.0000  1.0000  1.0000  1.0000
    1.0000  1.0000  1.0000  1.0000  1.0000  1.0000  1.0000  1.0000
    1.0000  1.0000  1.0000  1.0000  1.0000  1.0000  1.0000  1.0000
    1.0000  1.0000  1.0000  1.0000  1.0000  1.0000  1.0000  1.0000
    1.0000  1.0000  1.0000  1.0000  1.0000  1.0000  1.0000  1.0000
    1.0000  1.0000  1.0000  1.0000  1.0000  0.0000  1.0000  0.0000
    0.0000  0.0000  0.0000  0.0000  0.0000  0.0000  0.0000  0.0000
    0.0000  0.0000  0.0000  0.0000  0.0000  0.0000  0.0000  0.0000
    0.0000  0.0000  0.0000  0.0000  0.0000  0.0000  0.0000  0.0000

