&control
    calculation = 'scf'
    prefix = 'di'
    verbosity = 'high'
    wf_collect = .true.
/

&system
    ibrav = 1
    a = 7.136588
    nat = 63
    ntyp = 2
    ecutwfc = 70
    tot_charge = -1
    nspin = 2
    occupations = 'from_input'
    nbnd = 152
    starting_magnetization(1:2) = 0.5, 0.5
/

&electrons
    mixing_beta = 0.5
/

&ions
/

ATOMIC_SPECIES
    C       12.0111  C_ONCV_PBE-1.0.upf
    N       14.0067  N_ONCV_PBE-1.0.upf

ATOMIC_POSITIONS crystal
    C           0.375731082       0.375731082       0.873704836
    C           0.500025789       0.000157951       0.000157951
    C           0.500064232      -0.000023908       0.500064232
    C           0.000157951       0.500025789       0.000157951
    C          -0.000023908       0.500064232       0.500064232
    C          -0.000110225      -0.000110225      -0.000110225
    C           0.000157951       0.000157951       0.500025789
    C           0.250191951       0.250191951      -0.001270683
    C           0.250531985       0.250531985       0.494560122
    C           0.250440052       0.749013686       0.001022969
    C           0.252828862       0.747653306       0.501574102
    C           0.749013686       0.250440052       0.001022969
    C           0.747653306       0.252828862       0.501574102
    C           0.749669075       0.749669075      -0.000125373
    C           0.500064232       0.500064232      -0.000023908
    C           0.749209756       0.749209756       0.498840413
    C           0.501574102       0.252828862       0.747653306
    C           0.501574102       0.747653306       0.252828862
    C           0.498840413       0.749209756       0.749209756
    C          -0.001270683       0.250191951       0.250191951
    C           0.001022969       0.250440052       0.749013686
    C           0.001022969       0.749013686       0.250440052
    C          -0.000125373       0.749669075       0.749669075
    C           0.250531985       0.494560122       0.250531985
    C           0.252828862       0.501574102       0.747653306
    C           0.250191951      -0.001270683       0.250191951
    C           0.250440052       0.001022969       0.749013686
    C           0.747653306       0.501574102       0.252828862
    C           0.749209756       0.498840413       0.749209756
    C           0.494560122       0.250531985       0.250531985
    C           0.749013686       0.001022969       0.250440052
    C           0.624733680       0.874545292       0.624733680
    C           0.634513665       0.368087296       0.634513665
    C           0.375922091       0.876199425       0.876199425
    C           0.375731082       0.873704836       0.375731082
    C           0.876199425       0.375922091       0.876199425
    C           0.873704836       0.375731082       0.375731082
    C           0.874739618       0.874739618       0.874739618
    C           0.876199425       0.876199425       0.375922091
    C           0.125385378       0.125385378       0.874221242
    C           0.123755167       0.123755167       0.374865145
    C           0.124467990       0.624582368       0.875804744
    C           0.127166921       0.622853896       0.376299302
    C           0.624582368       0.124467990       0.875804744
    C           0.622853896       0.127166921       0.376299302
    C           0.624582368       0.875804744       0.124467990
    C           0.624733680       0.624733680       0.874545292
    C           0.374865145       0.123755167       0.123755167
    C           0.376299302       0.127166921       0.622853896
    C           0.376299302       0.622853896       0.127166921
    C           0.368087296       0.634513665       0.634513665
    C           0.874221242       0.125385378       0.125385378
    C           0.875804744       0.124467990       0.624582368
    C           0.875804744       0.624582368       0.124467990
    C           0.874545292       0.624733680       0.624733680
    C           0.123755167       0.374865145       0.123755167
    C           0.127166921       0.376299302       0.622853896
    C           0.125385378       0.874221242       0.125385378
    C           0.124467990       0.875804744       0.624582368
    C           0.622853896       0.376299302       0.127166921
    C           0.634513665       0.634513665       0.368087296
    C           0.749669075      -0.000125373       0.749669075
    N           0.364315256       0.364315256       0.364315256

K_POINTS automatic
    1  1  1    0  0  0

OCCUPATIONS
    1.0000  1.0000  1.0000  1.0000  1.0000  1.0000  1.0000  1.0000
    1.0000  1.0000  1.0000  1.0000  1.0000  1.0000  1.0000  1.0000
    1.0000  1.0000  1.0000  1.0000  1.0000  1.0000  1.0000  1.0000
    1.0000  1.0000  1.0000  1.0000  1.0000  1.0000  1.0000  1.0000
    1.0000  1.0000  1.0000  1.0000  1.0000  1.0000  1.0000  1.0000
    1.0000  1.0000  1.0000  1.0000  1.0000  1.0000  1.0000  1.0000
    1.0000  1.0000  1.0000  1.0000  1.0000  1.0000  1.0000  1.0000
    1.0000  1.0000  1.0000  1.0000  1.0000  1.0000  1.0000  1.0000
    1.0000  1.0000  1.0000  1.0000  1.0000  1.0000  1.0000  1.0000
    1.0000  1.0000  1.0000  1.0000  1.0000  1.0000  1.0000  1.0000
    1.0000  1.0000  1.0000  1.0000  1.0000  1.0000  1.0000  1.0000
    1.0000  1.0000  1.0000  1.0000  1.0000  1.0000  1.0000  1.0000
    1.0000  1.0000  1.0000  1.0000  1.0000  1.0000  1.0000  1.0000
    1.0000  1.0000  1.0000  1.0000  1.0000  1.0000  1.0000  1.0000
    1.0000  1.0000  1.0000  1.0000  1.0000  1.0000  1.0000  1.0000
    1.0000  1.0000  1.0000  1.0000  1.0000  1.0000  1.0000  1.0000
    0.0000  0.0000  0.0000  0.0000  0.0000  0.0000  0.0000  0.0000
    0.0000  0.0000  0.0000  0.0000  0.0000  0.0000  0.0000  0.0000
    0.0000  0.0000  0.0000  0.0000  0.0000  0.0000  0.0000  0.0000
    1.0000  1.0000  1.0000  1.0000  1.0000  1.0000  1.0000  1.0000
    1.0000  1.0000  1.0000  1.0000  1.0000  1.0000  1.0000  1.0000
    1.0000  1.0000  1.0000  1.0000  1.0000  1.0000  1.0000  1.0000
    1.0000  1.0000  1.0000  1.0000  1.0000  1.0000  1.0000  1.0000
    1.0000  1.0000  1.0000  1.0000  1.0000  1.0000  1.0000  1.0000
    1.0000  1.0000  1.0000  1.0000  1.0000  1.0000  1.0000  1.0000
    1.0000  1.0000  1.0000  1.0000  1.0000  1.0000  1.0000  1.0000
    1.0000  1.0000  1.0000  1.0000  1.0000  1.0000  1.0000  1.0000
    1.0000  1.0000  1.0000  1.0000  1.0000  1.0000  1.0000  1.0000
    1.0000  1.0000  1.0000  1.0000  1.0000  1.0000  1.0000  1.0000
    1.0000  1.0000  1.0000  1.0000  1.0000  1.0000  1.0000  1.0000
    1.0000  1.0000  1.0000  1.0000  1.0000  1.0000  1.0000  1.0000
    1.0000  1.0000  1.0000  1.0000  1.0000  1.0000  1.0000  1.0000
    1.0000  1.0000  1.0000  1.0000  1.0000  1.0000  1.0000  1.0000
    1.0000  1.0000  1.0000  1.0000  1.0000  1.0000  1.0000  1.0000
    1.0000  1.0000  1.0000  1.0000  1.0000  0.0000  1.0000  0.0000
    0.0000  0.0000  0.0000  0.0000  0.0000  0.0000  0.0000  0.0000
    0.0000  0.0000  0.0000  0.0000  0.0000  0.0000  0.0000  0.0000
    0.0000  0.0000  0.0000  0.0000  0.0000  0.0000  0.0000  0.0000

