&control
 calculation='relax',
 pseudo_dir='/home/wufeng/programs/pseudo-ONCV-proj/'
 outdir='./',
 wf_collect=.true.,
 prefix='BN',
 verbosity='high',
 etot_conv_thr = 1d-5,
 forc_conv_thr = 1d-3
 max_seconds=84000,
/
&system
 ibrav=0,
 nat=71,
 ntyp=2,
 ecutwfc=45,
 ecutfock=90,
 nspin = 2,
 starting_magnetization(1) = 1,
 tot_charge=0,

 occupations = "from_input",
 nbnd = 151

!input_dft = 'pbe0'
!exx_fraction = 0.409
/
&electrons
 electron_maxstep = 200,
 mixing_beta=0.7,
 conv_thr=1.0D-6,
 scf_must_converge = .false.
/
&cell
/
&ions
/
K_POINTS gamma
ATOMIC_SPECIES
B 10.811 B_ONCV_PBE-1.0.upf
N 14.0067 N_ONCV_PBE-1.0.upf
CELL_PARAMETERS angstrom
15.043730685 0.0 0.0
-7.5218653425 13.02825294090147 0.0
0.0 0.0 21.167089904
ATOMIC_POSITIONS {angstrom}
B        1.274534951   0.724794818   0.000000000
B        0.024900087   2.880972597   0.000000000
B       -1.264726714   5.046303724   0.000000000
B       -2.552944975   7.217095964   0.000000000
B       -3.807627873   9.386772161   0.000000000
B       -5.036638203  11.560447518   0.000000000
B        3.768945117   0.756860561   0.000000000
B        2.570383206   2.982946725   0.000000000
B        1.229878757   5.074872359   0.000000000
B       -0.062893175   7.234184233   0.000000000
B       -1.305808598   9.405901334   0.000000000
B       -2.539856056  11.583393353   0.000000000
B        6.259249693   0.736527881   0.000000000
B        5.051121907   2.980083915   0.000000000
B        3.806865231   5.329488620   0.000000000
B        2.404441808   7.263501382   0.000000000
B        1.196817623   9.416478606   0.000000000
B       -0.034176789  11.580700136   0.000000000
B        8.787433897   0.687105687   0.000000000
B        7.594416983   2.846397661   0.000000000
N        6.356462139   4.982884851   0.000000000
B        4.780713165   7.016566601   0.000000000
B        3.712452307   9.375350246   0.000000000
B        2.490840254  11.551437334   0.000000000
B       11.304978671   0.669752248   0.000000000
B       10.081652140   2.831649883   0.000000000
B        8.825432464   4.978225410   0.000000000
B        7.437873355   7.114280467   0.000000000
B        6.194880453   9.260845152   0.000000000
B        5.010307048  11.515753159   0.000000000
B       13.807499040   0.680319982   0.000000000
B       12.566055602   2.854165449   0.000000000
B       11.291783602   5.024412239   0.000000000
B        9.985571347   7.189619275   0.000000000
B        8.722588673   9.336118318   0.000000000
B        7.502378906  11.512141267   0.000000000
N        0.014723265   1.427985808   0.000000000
N       -1.236196785   3.595081230   0.000000000
N       -2.520443411   5.766121440   0.000000000
N       -3.811748587   7.934016232   0.000000000
N       -5.065235124  10.096710097   0.000000000
N       -6.284634505  12.280393015   0.000000000
N        2.532253839   1.499554899   0.000000000
N        1.273410100   3.631353372   0.000000000
N       -0.031599647   5.786552768   0.000000000
N       -1.311964146   7.955374078   0.000000000
N       -2.556916731  10.129007497   0.000000000
N       -3.783484397  12.317654868   0.000000000
N        5.025546272   1.505661438   0.000000000
N        3.842151157   3.792887816   0.000000000
N        2.450085146   5.827213568   0.000000000
N        1.170187095   7.977022982   0.000000000
N       -0.053163834  10.136570792   0.000000000
N       -1.284007511  12.313531487   0.000000000
N        7.538519932   1.416405710   0.000000000
N        6.379933519   3.614430302   0.000000000
N        3.670771921   7.942094888   0.000000000
N        2.466286234  10.113715355   0.000000000
N        1.238774457  12.277722997   0.000000000
N       10.054952784   1.392055237   0.000000000
N        8.840149746   3.548186170   0.000000000
N        7.553242797   5.646595720   0.000000000
N        6.129117550   7.754756585   0.000000000
N        4.984306457  10.059034724   0.000000000
N        3.762325254  12.252207182   0.000000000
N       12.556941466   1.403522381   0.000000000
N       11.315229086   3.574553140   0.000000000
N       10.036041803   5.741566431   0.000000000
N        8.702328023   7.872984085   0.000000000
N        7.460720483  10.035929623   0.000000000
N        6.263270250  12.251204964   0.000000000
OCCUPATIONS
     1.0000   1.0000   1.0000   1.0000   1.0000   1.0000   1.0000   1.0000
     1.0000   1.0000   1.0000   1.0000   1.0000   1.0000   1.0000   1.0000
     1.0000   1.0000   1.0000   1.0000   1.0000   1.0000   1.0000   1.0000
     1.0000   1.0000   1.0000   1.0000   1.0000   1.0000   1.0000   1.0000
     1.0000   1.0000   1.0000   1.0000   1.0000   1.0000   1.0000   1.0000
     1.0000   1.0000   1.0000   1.0000   1.0000   1.0000   1.0000   1.0000
     1.0000   1.0000   1.0000   1.0000   1.0000   1.0000   1.0000   1.0000
     1.0000   1.0000   1.0000   1.0000   1.0000   1.0000   1.0000   1.0000
     1.0000   1.0000   1.0000   1.0000   1.0000   1.0000   1.0000   1.0000
     1.0000   1.0000   1.0000   1.0000   1.0000   1.0000   1.0000   1.0000
     1.0000   1.0000   1.0000   1.0000   1.0000   1.0000   1.0000   1.0000
     1.0000   1.0000   1.0000   1.0000   1.0000   1.0000   1.0000   1.0000
     1.0000   1.0000   1.0000   1.0000   1.0000   1.0000   1.0000   1.0000
     1.0000   1.0000   1.0000   1.0000   1.0000   1.0000   1.0000   1.0000
     1.0000   1.0000   1.0000   1.0000   1.0000   1.0000   1.0000   1.0000
     1.0000   1.0000   1.0000   1.0000   1.0000   1.0000   1.0000   1.0000
     1.0000   1.0000   1.0000   1.0000   1.0000   1.0000   1.0000   1.0000
     1.0000   1.0000   1.0000   1.0000   1.0000   1.0000   0.0000   1.0000
     0.0000   0.0000   0.0000   0.0000   0.0000   0.0000   0.0000   
     1.0000   1.0000   1.0000   1.0000   1.0000   1.0000   1.0000   1.0000
     1.0000   1.0000   1.0000   1.0000   1.0000   1.0000   1.0000   1.0000
     1.0000   1.0000   1.0000   1.0000   1.0000   1.0000   1.0000   1.0000
     1.0000   1.0000   1.0000   1.0000   1.0000   1.0000   1.0000   1.0000
     1.0000   1.0000   1.0000   1.0000   1.0000   1.0000   1.0000   1.0000
     1.0000   1.0000   1.0000   1.0000   1.0000   1.0000   1.0000   1.0000
     1.0000   1.0000   1.0000   1.0000   1.0000   1.0000   1.0000   1.0000
     1.0000   1.0000   1.0000   1.0000   1.0000   1.0000   1.0000   1.0000
     1.0000   1.0000   1.0000   1.0000   1.0000   1.0000   1.0000   1.0000
     1.0000   1.0000   1.0000   1.0000   1.0000   1.0000   1.0000   1.0000
     1.0000   1.0000   1.0000   1.0000   1.0000   1.0000   1.0000   1.0000
     1.0000   1.0000   1.0000   1.0000   1.0000   1.0000   1.0000   1.0000
     1.0000   1.0000   1.0000   1.0000   1.0000   1.0000   1.0000   1.0000
     1.0000   1.0000   1.0000   1.0000   1.0000   1.0000   1.0000   1.0000
     1.0000   1.0000   1.0000   1.0000   1.0000   1.0000   1.0000   1.0000
     1.0000   1.0000   1.0000   1.0000   1.0000   1.0000   1.0000   1.0000
     1.0000   1.0000   1.0000   1.0000   1.0000   1.0000   1.0000   1.0000
     1.0000   1.0000   1.0000   1.0000   1.0000   1.0000   0.0000   0.0000
     0.0000   0.0000   0.0000   0.0000   0.0000   0.0000   0.0000   
