&control
    calculation = 'scf'
    prefix = 'di'
    verbosity = 'high'
    wf_collect = .true.
/

&system
    ibrav = 1
    a = 7.136588
    nat = 63
    ntyp = 2
    ecutwfc = 70
    tot_charge = -1
    nspin = 2
    occupations = 'from_input'
    nbnd = 152
    starting_magnetization(1:2) = 0.5, 0.5
/

&electrons
    mixing_beta = 0.5
/

&ions
/

ATOMIC_SPECIES
    C       12.0111  C_ONCV_PBE-1.0.upf
    N       14.0067  N_ONCV_PBE-1.0.upf

ATOMIC_POSITIONS crystal
    C           0.375728050       0.375728050       0.873713002
    C           0.500010855       0.000140565       0.000140565
    C           0.500069469       0.000001919       0.500069469
    C           0.000140565       0.500010855       0.000140565
    C           0.000001919       0.500069469       0.500069469
    C          -0.000109471      -0.000109471      -0.000109471
    C           0.000140565       0.000140565       0.500010855
    C           0.250175393       0.250175393      -0.001293921
    C           0.250477625       0.250477625       0.494447001
    C           0.250458212       0.749006072       0.001034149
    C           0.252936859       0.747592514       0.501540402
    C           0.749006072       0.250458212       0.001034149
    C           0.747592514       0.252936859       0.501540402
    C           0.749679129       0.749679129      -0.000079968
    C           0.500069469       0.500069469       0.000001919
    C           0.749250742       0.749250742       0.498873329
    C           0.501540402       0.252936859       0.747592514
    C           0.501540402       0.747592514       0.252936859
    C           0.498873329       0.749250742       0.749250742
    C          -0.001293921       0.250175393       0.250175393
    C           0.001034149       0.250458212       0.749006072
    C           0.001034149       0.749006072       0.250458212
    C          -0.000079968       0.749679129       0.749679129
    C           0.250477625       0.494447001       0.250477625
    C           0.252936859       0.501540402       0.747592514
    C           0.250175393      -0.001293921       0.250175393
    C           0.250458212       0.001034149       0.749006072
    C           0.747592514       0.501540402       0.252936859
    C           0.749250742       0.498873329       0.749250742
    C           0.494447001       0.250477625       0.250477625
    C           0.749006072       0.001034149       0.250458212
    C           0.624764955       0.874601390       0.624764955
    C           0.634405397       0.368443394       0.634405397
    C           0.375936901       0.876198030       0.876198030
    C           0.375728050       0.873713002       0.375728050
    C           0.876198030       0.375936901       0.876198030
    C           0.873713002       0.375728050       0.375728050
    C           0.874755513       0.874755513       0.874755513
    C           0.876198030       0.876198030       0.375936901
    C           0.125386338       0.125386338       0.874208350
    C           0.123704167       0.123704167       0.374864640
    C           0.124522809       0.624598567       0.875783081
    C           0.127203893       0.622815127       0.376293883
    C           0.624598567       0.124522809       0.875783081
    C           0.622815127       0.127203893       0.376293883
    C           0.624598567       0.875783081       0.124522809
    C           0.624764955       0.624764955       0.874601390
    C           0.374864640       0.123704167       0.123704167
    C           0.376293883       0.127203893       0.622815127
    C           0.376293883       0.622815127       0.127203893
    C           0.368443394       0.634405397       0.634405397
    C           0.874208350       0.125386338       0.125386338
    C           0.875783081       0.124522809       0.624598567
    C           0.875783081       0.624598567       0.124522809
    C           0.874601390       0.624764955       0.624764955
    C           0.123704167       0.374864640       0.123704167
    C           0.127203893       0.376293883       0.622815127
    C           0.125386338       0.874208350       0.125386338
    C           0.124522809       0.875783081       0.624598567
    C           0.622815127       0.376293883       0.127203893
    C           0.634405397       0.634405397       0.368443394
    C           0.749679129      -0.000079968       0.749679129
    N           0.364096210       0.364096210       0.364096210

K_POINTS automatic
    1  1  1    0  0  0

OCCUPATIONS
    1.0000  1.0000  1.0000  1.0000  1.0000  1.0000  1.0000  1.0000
    1.0000  1.0000  1.0000  1.0000  1.0000  1.0000  1.0000  1.0000
    1.0000  1.0000  1.0000  1.0000  1.0000  1.0000  1.0000  1.0000
    1.0000  1.0000  1.0000  1.0000  1.0000  1.0000  1.0000  1.0000
    1.0000  1.0000  1.0000  1.0000  1.0000  1.0000  1.0000  1.0000
    1.0000  1.0000  1.0000  1.0000  1.0000  1.0000  1.0000  1.0000
    1.0000  1.0000  1.0000  1.0000  1.0000  1.0000  1.0000  1.0000
    1.0000  1.0000  1.0000  1.0000  1.0000  1.0000  1.0000  1.0000
    1.0000  1.0000  1.0000  1.0000  1.0000  1.0000  1.0000  1.0000
    1.0000  1.0000  1.0000  1.0000  1.0000  1.0000  1.0000  1.0000
    1.0000  1.0000  1.0000  1.0000  1.0000  1.0000  1.0000  1.0000
    1.0000  1.0000  1.0000  1.0000  1.0000  1.0000  1.0000  1.0000
    1.0000  1.0000  1.0000  1.0000  1.0000  1.0000  1.0000  1.0000
    1.0000  1.0000  1.0000  1.0000  1.0000  1.0000  1.0000  1.0000
    1.0000  1.0000  1.0000  1.0000  1.0000  1.0000  1.0000  1.0000
    1.0000  1.0000  1.0000  1.0000  1.0000  1.0000  1.0000  1.0000
    0.0000  0.0000  0.0000  0.0000  0.0000  0.0000  0.0000  0.0000
    0.0000  0.0000  0.0000  0.0000  0.0000  0.0000  0.0000  0.0000
    0.0000  0.0000  0.0000  0.0000  0.0000  0.0000  0.0000  0.0000
    1.0000  1.0000  1.0000  1.0000  1.0000  1.0000  1.0000  1.0000
    1.0000  1.0000  1.0000  1.0000  1.0000  1.0000  1.0000  1.0000
    1.0000  1.0000  1.0000  1.0000  1.0000  1.0000  1.0000  1.0000
    1.0000  1.0000  1.0000  1.0000  1.0000  1.0000  1.0000  1.0000
    1.0000  1.0000  1.0000  1.0000  1.0000  1.0000  1.0000  1.0000
    1.0000  1.0000  1.0000  1.0000  1.0000  1.0000  1.0000  1.0000
    1.0000  1.0000  1.0000  1.0000  1.0000  1.0000  1.0000  1.0000
    1.0000  1.0000  1.0000  1.0000  1.0000  1.0000  1.0000  1.0000
    1.0000  1.0000  1.0000  1.0000  1.0000  1.0000  1.0000  1.0000
    1.0000  1.0000  1.0000  1.0000  1.0000  1.0000  1.0000  1.0000
    1.0000  1.0000  1.0000  1.0000  1.0000  1.0000  1.0000  1.0000
    1.0000  1.0000  1.0000  1.0000  1.0000  1.0000  1.0000  1.0000
    1.0000  1.0000  1.0000  1.0000  1.0000  1.0000  1.0000  1.0000
    1.0000  1.0000  1.0000  1.0000  1.0000  1.0000  1.0000  1.0000
    1.0000  1.0000  1.0000  1.0000  1.0000  1.0000  1.0000  1.0000
    1.0000  1.0000  1.0000  1.0000  1.0000  0.0000  1.0000  0.0000
    0.0000  0.0000  0.0000  0.0000  0.0000  0.0000  0.0000  0.0000
    0.0000  0.0000  0.0000  0.0000  0.0000  0.0000  0.0000  0.0000
    0.0000  0.0000  0.0000  0.0000  0.0000  0.0000  0.0000  0.0000

