&control
    calculation = 'scf'
    wf_collect = .true.
    prefix = 'BN'
    outdir = '.'
/

&system
    ibrav = 0
    nat = 71
    ntyp = 2
    nspin = 2
    ecutwfc = 55
    starting_magnetization(1:2) = 0.5, 0.5
    nbnd = 151
    tot_magnetization = 1
/

&electrons
    mixing_beta = 0.7
    conv_thr = 1e-07
/

&ions
/

ATOMIC_SPECIES
    B  10.811  B_ONCV_PBE-1.0.upf
    N  14.0067  N_ONCV_PBE-1.0.upf

CELL_PARAMETERS angstrom
        15.043730000       0.000000000       0.000000000
        -7.521865000      13.028252348       0.000000000
         0.000000000       0.000000000      20.000000000

K_POINTS automatic
    1  1  1    0  0  0

ATOMIC_POSITIONS crystal
B    0.1125246720 0.0556392010 0.0000000000
B    0.1122352490 0.2211318640 0.0000000000
B    0.1095753280 0.3873100680 0.0000000000
B    0.1072853060 0.5539685800 0.0000000000
B    0.1071320480 0.7204976570 0.0000000000
B    0.1088498130 0.8873251220 0.0000000000
B    0.2795730390 0.0580611760 0.0000000000
B    0.2853291190 0.2289482400 0.0000000000
B    0.2765095620 0.3895648720 0.0000000000
B    0.2734336050 0.5552701460 0.0000000000
B    0.2741972590 0.7219691860 0.0000000000
B    0.2757146160 0.8890869830 0.0000000000
B    0.4443334270 0.0565051430 0.0000000000
B    0.4501229120 0.2287271920 0.0000000000
B    0.4576061610 0.4091030880 0.0000000000
B    0.4386082810 0.5575520020 0.0000000000
B    0.4409075610 0.7227458570 0.0000000000
B    0.4421949230 0.8888915940 0.0000000000
B    0.6105084500 0.0527373660 0.0000000000
B    0.6140688290 0.2184358050 0.0000000000
N    0.6136744150 0.3825331130 0.0000000000
B    0.5870648570 0.5385758560 0.0000000000
B    0.6065819610 0.7196564520 0.0000000000
B    0.6089088260 0.8866467200 0.0000000000
B    0.7771574950 0.0513809770 0.0000000000
B    0.7788190200 0.2173484140 0.0000000000
B    0.7777230250 0.3820798470 0.0000000000
B    0.7674781700 0.5460809900 0.0000000000
B    0.7672241430 0.7108612760 0.0000000000
B    0.7750083560 0.8839068990 0.0000000000
B    0.9439367900 0.0522074860 0.0000000000
B    0.9448408080 0.2190652540 0.0000000000
B    0.9434462080 0.3856676330 0.0000000000
B    0.9396930050 0.5518528830 0.0000000000
B    0.9381248790 0.7165902090 0.0000000000
B    0.9405414770 0.8836630630 0.0000000000
N    0.0557681690 0.1096089110 0.0000000000
N    0.0558131420 0.2759104040 0.0000000000
N    0.0537763120 0.4425853150 0.0000000000
N    0.0510825060 0.6089941290 0.0000000000
N    0.0507453130 0.7749508110 0.0000000000
N    0.0536093060 0.9426723540 0.0000000000
N    0.2258581690 0.1150494230 0.0000000000
N    0.2240417980 0.2787649400 0.0000000000
N    0.2198894470 0.4441402510 0.0000000000
N    0.2181324860 0.6106783950 0.0000000000
N    0.2187616790 0.7774438740 0.0000000000
N    0.2211897830 0.9454016080 0.0000000000
N    0.3918418720 0.1155528100 0.0000000000
N    0.4009924930 0.2911736360 0.0000000000
N    0.3865233980 0.4473399240 0.0000000000
N    0.3838927410 0.6122317560 0.0000000000
N    0.3854944730 0.7780491480 0.0000000000
N    0.3872242550 0.9451175800 0.0000000000
N    0.5554639500 0.1086620540 0.0000000000
N    0.5627396910 0.2773218260 0.0000000000
N    0.5488428530 0.6096814350 0.0000000000
N    0.5520215070 0.7762704430 0.0000000000
N    0.5535761610 0.9424243750 0.0000000000
N    0.7218157660 0.1068549840 0.0000000000
N    0.7237728620 0.2723259490 0.0000000000
N    0.7188820770 0.4334543590 0.0000000000
N    0.7050882670 0.5952630130 0.0000000000
N    0.7173636810 0.7721350480 0.0000000000
N    0.7203446460 0.9404135490 0.0000000000
N    0.8885389530 0.1076743280 0.0000000000
N    0.8893321720 0.2743791100 0.0000000000
N    0.8874915250 0.4406923360 0.0000000000
N    0.8806173450 0.6043096770 0.0000000000
N    0.8811392050 0.7703164360 0.0000000000
N    0.8864983600 0.9403612610 0.0000000000
