&control
    calculation = 'scf'
    wf_collect = .true.
    prefix = 'BN'
    outdir = '.'
/

&system
    ibrav = 0
    nat = 71
    ntyp = 2
    nspin = 2
    ecutwfc = 55
    starting_magnetization(1:2) = 0.5, 0.5
    occupations = 'from_input'
    nbnd = 151
/

&electrons
    mixing_beta = 0.7
    conv_thr = 1e-06
    scf_must_converge = .false.
    electron_maxstep = 60
/

&ions
/

ATOMIC_SPECIES
    B  10.811  B_ONCV_PBE-1.0.upf
    N  14.0067  N_ONCV_PBE-1.0.upf

CELL_PARAMETERS angstrom
        15.043730000       0.000000000       0.000000000
        -7.521865000      13.028252348       0.000000000
         0.000000000       0.000000000      20.000000000

K_POINTS automatic
    1  1  1    0  0  0

ATOMIC_POSITIONS crystal
B    0.1125508566 0.0556870922 0.0000000000
B    0.1124384818 0.2212141312 0.0000000000
B    0.1097112096 0.3873539940 0.0000000000
B    0.1072428368 0.5540115114 0.0000000000
B    0.1070630962 0.7205577834 0.0000000000
B    0.1088047172 0.8873625214 0.0000000000
B    0.2794851820 0.0580985434 0.0000000000
B    0.2854765556 0.2291193428 0.0000000000
B    0.2767868794 0.3898376072 0.0000000000
B    0.2733570382 0.5553875762 0.0000000000
B    0.2741227772 0.7220447974 0.0000000000
B    0.2756447736 0.8891355332 0.0000000000
B    0.4442792022 0.0565226352 0.0000000000
B    0.4495769636 0.2287532888 0.0000000000
B    0.4585901520 0.4102068248 0.0000000000
B    0.4384351618 0.5577237512 0.0000000000
B    0.4407742212 0.7228056782 0.0000000000
B    0.4421610278 0.8889324426 0.0000000000
B    0.6105513182 0.0525644072 0.0000000000
B    0.6143445690 0.2181208692 0.0000000000
N    0.6143221398 0.3818701014 0.0000000000
B    0.5859901530 0.5376285398 0.0000000000
B    0.6063141640 0.7193874086 0.0000000000
B    0.6088560972 0.8864950974 0.0000000000
B    0.7772168218 0.0512052534 0.0000000000
B    0.7790544202 0.2171179036 0.0000000000
B    0.7780193218 0.3817954142 0.0000000000
B    0.7674394620 0.5466309136 0.0000000000
B    0.7670743184 0.7107479746 0.0000000000
B    0.7749375186 0.8837167764 0.0000000000
B    0.9439945890 0.0521591742 0.0000000000
B    0.9450076600 0.2189997376 0.0000000000
B    0.9436156542 0.3856310036 0.0000000000
B    0.9396531898 0.5518996362 0.0000000000
B    0.9380702480 0.7166756892 0.0000000000
B    0.9405185120 0.8836621228 0.0000000000
N    0.0558065642 0.1096275592 0.0000000000
N    0.0558832368 0.2759222570 0.0000000000
N    0.0537991948 0.4426065014 0.0000000000
N    0.0509251528 0.6089869520 0.0000000000
N    0.0506712492 0.7749644442 0.0000000000
N    0.0536038720 0.9426931862 0.0000000000
N    0.2258972554 0.1150991718 0.0000000000
N    0.2241160342 0.2788429574 0.0000000000
N    0.2198957956 0.4442653570 0.0000000000
N    0.2179784378 0.6107917006 0.0000000000
N    0.2186654448 0.7775252754 0.0000000000
N    0.2211667180 0.9454553206 0.0000000000
N    0.3919219210 0.1156889376 0.0000000000
N    0.4010370642 0.2911439490 0.0000000000
N    0.3865398164 0.4476360278 0.0000000000
N    0.3836679680 0.6124406424 0.0000000000
N    0.3853808702 0.7782053784 0.0000000000
N    0.3872219422 0.9452543060 0.0000000000
N    0.5555416234 0.1086305150 0.0000000000
N    0.5632277624 0.2775915036 0.0000000000
N    0.5485438830 0.6096721042 0.0000000000
N    0.5518883780 0.7762554792 0.0000000000
N    0.5535626302 0.9423967360 0.0000000000
N    0.7218635832 0.1067626678 0.0000000000
N    0.7239047050 0.2721880808 0.0000000000
N    0.7185950650 0.4329686644 0.0000000000
N    0.7051355548 0.5952525292 0.0000000000
N    0.7172931224 0.7720754678 0.0000000000
N    0.7203241296 0.9403330646 0.0000000000
N    0.8885667846 0.1076419524 0.0000000000
N    0.8894304618 0.2743371762 0.0000000000
N    0.8875065838 0.4406111020 0.0000000000
N    0.8804608836 0.6042268942 0.0000000000
N    0.8811019600 0.7703019236 0.0000000000
N    0.8864930204 0.9403348024 0.0000000000
OCCUPATIONS
    1    1    1    1    1    1    1    1
    1    1    1    1    1    1    1    1
    1    1    1    1    1    1    1    1
    1    1    1    1    1    1    1    1
    1    1    1    1    1    1    1    1
    1    1    1    1    1    1    1    1
    1    1    1    1    1    1    1    1
    1    1    1    1    1    1    1    1
    1    1    1    1    1    1    1    1
    1    1    1    1    1    1    1    1
    1    1    1    1    1    1    1    1
    1    1    1    1    1    1    1    1
    1    1    1    1    1    1    1    1
    1    1    1    1    1    1    1    1
    1    1    1    1    1    1    1    1
    1    1    1    1    1    1    1    1
    1    1    1    1    1    1    1    1
    1    1    1    1    1    1    0    1
    0    0    0    0    0    0    0
    1    1    1    1    1    1    1    1
    1    1    1    1    1    1    1    1
    1    1    1    1    1    1    1    1
    1    1    1    1    1    1    1    1
    1    1    1    1    1    1    1    1
    1    1    1    1    1    1    1    1
    1    1    1    1    1    1    1    1
    1    1    1    1    1    1    1    1
    1    1    1    1    1    1    1    1
    1    1    1    1    1    1    1    1
    1    1    1    1    1    1    1    1
    1    1    1    1    1    1    1    1
    1    1    1    1    1    1    1    1
    1    1    1    1    1    1    1    1
    1    1    1    1    1    1    1    1
    1    1    1    1    1    1    1    1
    1    1    1    1    1    1    1    1
    1    1    1    1    1    1    0    0
    0    0    0    0    0    0    0

