&control
    calculation = 'scf'
    wf_collect = .true.
    prefix = 'BN'
/

&system
    ibrav = 0
    nat = 71
    ntyp = 2
    nspin = 2
    ecutwfc = 55
    starting_magnetization(1:2) = 0.5, 0.5
    nbnd = 151
    tot_magnetization = 1
/

&electrons
    mixing_beta = 0.7
    conv_thr = 1e-07
/

&ions
/

ATOMIC_SPECIES
    B  10.811  B_ONCV_PBE-1.0.upf
    N  14.0067  N_ONCV_PBE-1.0.upf

CELL_PARAMETERS angstrom
        15.043730000       0.000000000       0.000000000
        -7.521865000      13.028252348       0.000000000
         0.000000000       0.000000000      20.000000000

K_POINTS automatic
    1  1  1    0  0  0

ATOMIC_POSITIONS crystal
B    0.1126425027 0.0558547114 0.0000000000
B    0.1131497966 0.2215020664 0.0000000000
B    0.1101867952 0.3875077350 0.0000000000
B    0.1070941946 0.5541617713 0.0000000000
B    0.1068217649 0.7207682258 0.0000000000
B    0.1086468819 0.8874934193 0.0000000000
B    0.2791776825 0.0582293293 0.0000000000
B    0.2859925837 0.2297182026 0.0000000000
B    0.2777574903 0.3907921804 0.0000000000
B    0.2730890544 0.5557985819 0.0000000000
B    0.2738620909 0.7223094373 0.0000000000
B    0.2754003252 0.8893054589 0.0000000000
B    0.4440894154 0.0565838579 0.0000000000
B    0.4476661442 0.2288446276 0.0000000000
B    0.4620341205 0.4140699036 0.0000000000
B    0.4378292446 0.5583248734 0.0000000000
B    0.4403075319 0.7230150524 0.0000000000
B    0.4420423946 0.8890754127 0.0000000000
B    0.6107013569 0.0519590514 0.0000000000
B    0.6153096590 0.2170185939 0.0000000000
N    0.6165891766 0.3795495608 0.0000000000
B    0.5822286890 0.5343129331 0.0000000000
B    0.6053768745 0.7184457567 0.0000000000
B    0.6086715464 0.8859644183 0.0000000000
B    0.7774244656 0.0505902208 0.0000000000
B    0.7798783209 0.2163111172 0.0000000000
B    0.7790563606 0.3807998994 0.0000000000
B    0.7673039840 0.5485556462 0.0000000000
B    0.7665499323 0.7103514197 0.0000000000
B    0.7746895877 0.8830513473 0.0000000000
B    0.9441968855 0.0519900829 0.0000000000
B    0.9455916420 0.2187704302 0.0000000000
B    0.9442087159 0.3855028007 0.0000000000
B    0.9395138366 0.5520632724 0.0000000000
B    0.9378790395 0.7169748699 0.0000000000
B    0.9404381345 0.8836588321 0.0000000000
N    0.0559409474 0.1096928279 0.0000000000
N    0.0561285686 0.2759637425 0.0000000000
N    0.0538792846 0.4426806538 0.0000000000
N    0.0503744166 0.6089618325 0.0000000000
N    0.0504120259 0.7750121604 0.0000000000
N    0.0535848530 0.9427660989 0.0000000000
N    0.2260340578 0.1152732926 0.0000000000
N    0.2243758609 0.2791160183 0.0000000000
N    0.2199180157 0.4447032280 0.0000000000
N    0.2174392691 0.6111882702 0.0000000000
N    0.2183286251 0.7778101803 0.0000000000
N    0.2210859905 0.9456433147 0.0000000000
N    0.3922020925 0.1161653842 0.0000000000
N    0.4011930634 0.2910400445 0.0000000000
N    0.3865972808 0.4486723911 0.0000000000
N    0.3828812625 0.6131717448 0.0000000000
N    0.3849832604 0.7787521848 0.0000000000
N    0.3872138474 0.9457328470 0.0000000000
N    0.5558134803 0.1085201285 0.0000000000
N    0.5649360123 0.2785353752 0.0000000000
N    0.5474974880 0.6096394464 0.0000000000
N    0.5514224265 0.7762031059 0.0000000000
N    0.5535152724 0.9422999995 0.0000000000
N    0.7220309434 0.1064395611 0.0000000000
N    0.7243661555 0.2717055421 0.0000000000
N    0.7175905230 0.4312687333 0.0000000000
N    0.7053010621 0.5952158359 0.0000000000
N    0.7170461673 0.7718669371 0.0000000000
N    0.7202523222 0.9400513692 0.0000000000
N    0.8886641952 0.1075286378 0.0000000000
N    0.8897744761 0.2741904079 0.0000000000
N    0.8875592896 0.4403267830 0.0000000000
N    0.8799132687 0.6039371544 0.0000000000
N    0.8809716025 0.7702511302 0.0000000000
N    0.8864743318 0.9402421973 0.0000000000
