&control
    calculation = 'scf'
    wf_collect = .true.
    prefix = 'BN'
/

&system
    ibrav = 0
    nat = 71
    ntyp = 2
    nspin = 2
    ecutwfc = 55
    starting_magnetization(1:2) = 0.5, 0.5
    occupations = 'from_input'
    nbnd = 151
/

&electrons
    mixing_beta = 0.7
    conv_thr = 1e-06
    scf_must_converge = .false.
    electron_maxstep = 60
/

&ions
/

ATOMIC_SPECIES
    B       10.8110  B_ONCV_PBE-1.0.upf
    N       14.0067  N_ONCV_PBE-1.0.upf

CELL_PARAMETERS angstrom
        15.043730000       0.000000000       0.000000000
        -7.521865000      13.028252348       0.000000000
         0.000000000       0.000000000      20.000000000

ATOMIC_POSITIONS crystal
    B           0.112550857       0.055687092       0.000000000
    B           0.112438482       0.221214131       0.000000000
    B           0.109711210       0.387353994       0.000000000
    B           0.107242837       0.554011511       0.000000000
    B           0.107063096       0.720557783       0.000000000
    B           0.108804717       0.887362521       0.000000000
    B           0.279485182       0.058098543       0.000000000
    B           0.285476556       0.229119343       0.000000000
    B           0.276786879       0.389837607       0.000000000
    B           0.273357038       0.555387576       0.000000000
    B           0.274122777       0.722044797       0.000000000
    B           0.275644774       0.889135533       0.000000000
    B           0.444279202       0.056522635       0.000000000
    B           0.449576964       0.228753289       0.000000000
    B           0.458590152       0.410206825       0.000000000
    B           0.438435162       0.557723751       0.000000000
    B           0.440774221       0.722805678       0.000000000
    B           0.442161028       0.888932443       0.000000000
    B           0.610551318       0.052564407       0.000000000
    B           0.614344569       0.218120869       0.000000000
    N           0.614322140       0.381870101       0.000000000
    B           0.585990153       0.537628540       0.000000000
    B           0.606314164       0.719387409       0.000000000
    B           0.608856097       0.886495097       0.000000000
    B           0.777216822       0.051205253       0.000000000
    B           0.779054420       0.217117904       0.000000000
    B           0.778019322       0.381795414       0.000000000
    B           0.767439462       0.546630914       0.000000000
    B           0.767074318       0.710747975       0.000000000
    B           0.774937519       0.883716776       0.000000000
    B           0.943994589       0.052159174       0.000000000
    B           0.945007660       0.218999738       0.000000000
    B           0.943615654       0.385631004       0.000000000
    B           0.939653190       0.551899636       0.000000000
    B           0.938070248       0.716675689       0.000000000
    B           0.940518512       0.883662123       0.000000000
    N           0.055806564       0.109627559       0.000000000
    N           0.055883237       0.275922257       0.000000000
    N           0.053799195       0.442606501       0.000000000
    N           0.050925153       0.608986952       0.000000000
    N           0.050671249       0.774964444       0.000000000
    N           0.053603872       0.942693186       0.000000000
    N           0.225897255       0.115099172       0.000000000
    N           0.224116034       0.278842957       0.000000000
    N           0.219895796       0.444265357       0.000000000
    N           0.217978438       0.610791701       0.000000000
    N           0.218665445       0.777525275       0.000000000
    N           0.221166718       0.945455321       0.000000000
    N           0.391921921       0.115688938       0.000000000
    N           0.401037064       0.291143949       0.000000000
    N           0.386539816       0.447636028       0.000000000
    N           0.383667968       0.612440642       0.000000000
    N           0.385380870       0.778205378       0.000000000
    N           0.387221942       0.945254306       0.000000000
    N           0.555541623       0.108630515       0.000000000
    N           0.563227762       0.277591504       0.000000000
    N           0.548543883       0.609672104       0.000000000
    N           0.551888378       0.776255479       0.000000000
    N           0.553562630       0.942396736       0.000000000
    N           0.721863583       0.106762668       0.000000000
    N           0.723904705       0.272188081       0.000000000
    N           0.718595065       0.432968664       0.000000000
    N           0.705135555       0.595252529       0.000000000
    N           0.717293122       0.772075468       0.000000000
    N           0.720324130       0.940333065       0.000000000
    N           0.888566785       0.107641952       0.000000000
    N           0.889430462       0.274337176       0.000000000
    N           0.887506584       0.440611102       0.000000000
    N           0.880460884       0.604226894       0.000000000
    N           0.881101960       0.770301924       0.000000000
    N           0.886493020       0.940334802       0.000000000

K_POINTS automatic
    1  1  1    0  0  0

OCCUPATIONS
    1.0000  1.0000  1.0000  1.0000  1.0000  1.0000  1.0000  1.0000
    1.0000  1.0000  1.0000  1.0000  1.0000  1.0000  1.0000  1.0000
    1.0000  1.0000  1.0000  1.0000  1.0000  1.0000  1.0000  1.0000
    1.0000  1.0000  1.0000  1.0000  1.0000  1.0000  1.0000  1.0000
    1.0000  1.0000  1.0000  1.0000  1.0000  1.0000  1.0000  1.0000
    1.0000  1.0000  1.0000  1.0000  1.0000  1.0000  1.0000  1.0000
    1.0000  1.0000  1.0000  1.0000  1.0000  1.0000  1.0000  1.0000
    1.0000  1.0000  1.0000  1.0000  1.0000  1.0000  1.0000  1.0000
    1.0000  1.0000  1.0000  1.0000  1.0000  1.0000  1.0000  1.0000
    1.0000  1.0000  1.0000  1.0000  1.0000  1.0000  1.0000  1.0000
    1.0000  1.0000  1.0000  1.0000  1.0000  1.0000  1.0000  1.0000
    1.0000  1.0000  1.0000  1.0000  1.0000  1.0000  1.0000  1.0000
    1.0000  1.0000  1.0000  1.0000  1.0000  1.0000  1.0000  1.0000
    1.0000  1.0000  1.0000  1.0000  1.0000  1.0000  1.0000  1.0000
    1.0000  1.0000  1.0000  1.0000  1.0000  1.0000  1.0000  1.0000
    1.0000  1.0000  1.0000  1.0000  1.0000  1.0000  1.0000  1.0000
    1.0000  1.0000  1.0000  1.0000  1.0000  1.0000  1.0000  1.0000
    1.0000  1.0000  1.0000  1.0000  1.0000  1.0000  0.0000  1.0000
    0.0000  0.0000  0.0000  0.0000  0.0000  0.0000  0.0000
    1.0000  1.0000  1.0000  1.0000  1.0000  1.0000  1.0000  1.0000
    1.0000  1.0000  1.0000  1.0000  1.0000  1.0000  1.0000  1.0000
    1.0000  1.0000  1.0000  1.0000  1.0000  1.0000  1.0000  1.0000
    1.0000  1.0000  1.0000  1.0000  1.0000  1.0000  1.0000  1.0000
    1.0000  1.0000  1.0000  1.0000  1.0000  1.0000  1.0000  1.0000
    1.0000  1.0000  1.0000  1.0000  1.0000  1.0000  1.0000  1.0000
    1.0000  1.0000  1.0000  1.0000  1.0000  1.0000  1.0000  1.0000
    1.0000  1.0000  1.0000  1.0000  1.0000  1.0000  1.0000  1.0000
    1.0000  1.0000  1.0000  1.0000  1.0000  1.0000  1.0000  1.0000
    1.0000  1.0000  1.0000  1.0000  1.0000  1.0000  1.0000  1.0000
    1.0000  1.0000  1.0000  1.0000  1.0000  1.0000  1.0000  1.0000
    1.0000  1.0000  1.0000  1.0000  1.0000  1.0000  1.0000  1.0000
    1.0000  1.0000  1.0000  1.0000  1.0000  1.0000  1.0000  1.0000
    1.0000  1.0000  1.0000  1.0000  1.0000  1.0000  1.0000  1.0000
    1.0000  1.0000  1.0000  1.0000  1.0000  1.0000  1.0000  1.0000
    1.0000  1.0000  1.0000  1.0000  1.0000  1.0000  1.0000  1.0000
    1.0000  1.0000  1.0000  1.0000  1.0000  1.0000  1.0000  1.0000
    1.0000  1.0000  1.0000  1.0000  1.0000  1.0000  0.0000  0.0000
    0.0000  0.0000  0.0000  0.0000  0.0000  0.0000  0.0000

