&control
    calculation = 'scf'
    wf_collect = .true.
    prefix = 'BN'
/

&system
    ibrav = 0
    nat = 71
    ntyp = 2
    nspin = 2
    ecutwfc = 55
    starting_magnetization(1:2) = 0.5, 0.5
    occupations = 'from_input'
    nbnd = 151
/

&electrons
    mixing_beta = 0.7
    conv_thr = 1e-06
    scf_must_converge = .false.
    electron_maxstep = 60
/

&ions
/

ATOMIC_SPECIES
    B       10.8110  B_ONCV_PBE-1.0.upf
    N       14.0067  N_ONCV_PBE-1.0.upf

CELL_PARAMETERS angstrom
        15.043730000       0.000000000       0.000000000
        -7.521865000      13.028252348       0.000000000
         0.000000000       0.000000000      20.000000000

ATOMIC_POSITIONS crystal
    B           0.112655595       0.055878657       0.000000000
    B           0.113251413       0.221543200       0.000000000
    B           0.110254736       0.387529698       0.000000000
    B           0.107072960       0.554183237       0.000000000
    B           0.106787289       0.720798289       0.000000000
    B           0.108624334       0.887512119       0.000000000
    B           0.279133754       0.058248013       0.000000000
    B           0.286066302       0.229803754       0.000000000
    B           0.277896149       0.390928548       0.000000000
    B           0.273050771       0.555857297       0.000000000
    B           0.273824850       0.722347243       0.000000000
    B           0.275365404       0.889329734       0.000000000
    B           0.444062303       0.056592604       0.000000000
    B           0.447393170       0.228857676       0.000000000
    B           0.462526116       0.414621772       0.000000000
    B           0.437742685       0.558410748       0.000000000
    B           0.440240862       0.723044963       0.000000000
    B           0.442025447       0.889095837       0.000000000
    B           0.610722791       0.051872572       0.000000000
    B           0.615447529       0.216861126       0.000000000
    N           0.616913039       0.379218055       0.000000000
    B           0.581691337       0.533839275       0.000000000
    B           0.605242976       0.718311235       0.000000000
    B           0.608645182       0.885888607       0.000000000
    B           0.777454129       0.050502359       0.000000000
    B           0.779996021       0.216195862       0.000000000
    B           0.779204509       0.380657683       0.000000000
    B           0.767284630       0.548830608       0.000000000
    B           0.766475020       0.710294769       0.000000000
    B           0.774654169       0.882956286       0.000000000
    B           0.944225785       0.051965927       0.000000000
    B           0.945675068       0.218737672       0.000000000
    B           0.944293439       0.385484486       0.000000000
    B           0.939493929       0.552086649       0.000000000
    B           0.937851724       0.717017610       0.000000000
    B           0.940426652       0.883658362       0.000000000
    N           0.055960145       0.109702152       0.000000000
    N           0.056163616       0.275969669       0.000000000
    N           0.053890726       0.442691247       0.000000000
    N           0.050295740       0.608958244       0.000000000
    N           0.050374994       0.775018977       0.000000000
    N           0.053582136       0.942776515       0.000000000
    N           0.226053601       0.115298167       0.000000000
    N           0.224412979       0.279155027       0.000000000
    N           0.219921190       0.444765781       0.000000000
    N           0.217362245       0.611244923       0.000000000
    N           0.218280508       0.777850881       0.000000000
    N           0.221074458       0.945670171       0.000000000
    N           0.392242117       0.116233448       0.000000000
    N           0.401215349       0.291025201       0.000000000
    N           0.386605490       0.448820443       0.000000000
    N           0.382768876       0.613276188       0.000000000
    N           0.384926459       0.778830300       0.000000000
    N           0.387212691       0.945801210       0.000000000
    N           0.555852317       0.108504359       0.000000000
    N           0.565180048       0.278670214       0.000000000
    N           0.547348003       0.609634781       0.000000000
    N           0.551355862       0.776195624       0.000000000
    N           0.553508507       0.942286180       0.000000000
    N           0.722054852       0.106393403       0.000000000
    N           0.724432077       0.271636608       0.000000000
    N           0.717447017       0.431025886       0.000000000
    N           0.705324706       0.595210594       0.000000000
    N           0.717010888       0.771837147       0.000000000
    N           0.720242064       0.940011127       0.000000000
    N           0.888678111       0.107512450       0.000000000
    N           0.889823621       0.274169441       0.000000000
    N           0.887566819       0.440286166       0.000000000
    N           0.879835038       0.603895763       0.000000000
    N           0.880952980       0.770243874       0.000000000
    N           0.886471662       0.940228968       0.000000000

K_POINTS automatic
    1  1  1    0  0  0

OCCUPATIONS
    1.0000  1.0000  1.0000  1.0000  1.0000  1.0000  1.0000  1.0000
    1.0000  1.0000  1.0000  1.0000  1.0000  1.0000  1.0000  1.0000
    1.0000  1.0000  1.0000  1.0000  1.0000  1.0000  1.0000  1.0000
    1.0000  1.0000  1.0000  1.0000  1.0000  1.0000  1.0000  1.0000
    1.0000  1.0000  1.0000  1.0000  1.0000  1.0000  1.0000  1.0000
    1.0000  1.0000  1.0000  1.0000  1.0000  1.0000  1.0000  1.0000
    1.0000  1.0000  1.0000  1.0000  1.0000  1.0000  1.0000  1.0000
    1.0000  1.0000  1.0000  1.0000  1.0000  1.0000  1.0000  1.0000
    1.0000  1.0000  1.0000  1.0000  1.0000  1.0000  1.0000  1.0000
    1.0000  1.0000  1.0000  1.0000  1.0000  1.0000  1.0000  1.0000
    1.0000  1.0000  1.0000  1.0000  1.0000  1.0000  1.0000  1.0000
    1.0000  1.0000  1.0000  1.0000  1.0000  1.0000  1.0000  1.0000
    1.0000  1.0000  1.0000  1.0000  1.0000  1.0000  1.0000  1.0000
    1.0000  1.0000  1.0000  1.0000  1.0000  1.0000  1.0000  1.0000
    1.0000  1.0000  1.0000  1.0000  1.0000  1.0000  1.0000  1.0000
    1.0000  1.0000  1.0000  1.0000  1.0000  1.0000  1.0000  1.0000
    1.0000  1.0000  1.0000  1.0000  1.0000  1.0000  1.0000  1.0000
    1.0000  1.0000  1.0000  1.0000  1.0000  1.0000  0.0000  1.0000
    0.0000  0.0000  0.0000  0.0000  0.0000  0.0000  0.0000
    1.0000  1.0000  1.0000  1.0000  1.0000  1.0000  1.0000  1.0000
    1.0000  1.0000  1.0000  1.0000  1.0000  1.0000  1.0000  1.0000
    1.0000  1.0000  1.0000  1.0000  1.0000  1.0000  1.0000  1.0000
    1.0000  1.0000  1.0000  1.0000  1.0000  1.0000  1.0000  1.0000
    1.0000  1.0000  1.0000  1.0000  1.0000  1.0000  1.0000  1.0000
    1.0000  1.0000  1.0000  1.0000  1.0000  1.0000  1.0000  1.0000
    1.0000  1.0000  1.0000  1.0000  1.0000  1.0000  1.0000  1.0000
    1.0000  1.0000  1.0000  1.0000  1.0000  1.0000  1.0000  1.0000
    1.0000  1.0000  1.0000  1.0000  1.0000  1.0000  1.0000  1.0000
    1.0000  1.0000  1.0000  1.0000  1.0000  1.0000  1.0000  1.0000
    1.0000  1.0000  1.0000  1.0000  1.0000  1.0000  1.0000  1.0000
    1.0000  1.0000  1.0000  1.0000  1.0000  1.0000  1.0000  1.0000
    1.0000  1.0000  1.0000  1.0000  1.0000  1.0000  1.0000  1.0000
    1.0000  1.0000  1.0000  1.0000  1.0000  1.0000  1.0000  1.0000
    1.0000  1.0000  1.0000  1.0000  1.0000  1.0000  1.0000  1.0000
    1.0000  1.0000  1.0000  1.0000  1.0000  1.0000  1.0000  1.0000
    1.0000  1.0000  1.0000  1.0000  1.0000  1.0000  1.0000  1.0000
    1.0000  1.0000  1.0000  1.0000  1.0000  1.0000  0.0000  0.0000
    0.0000  0.0000  0.0000  0.0000  0.0000  0.0000  0.0000

